<?xml version="1.0"?>
<VTKFile type="UnstructuredGrid"  version="0.1"  >
<UnstructuredGrid>
<Piece  NumberOfPoints="1268" NumberOfCells="4847">
<Points>
<DataArray  type="Float64"  NumberOfComponents="3"  format="ascii">1.994716987487452 0.01317707561264319 -1.202466945460223e-11  1.374072606111497 -0.08614134488653273 -5.388997575085332  -1.285941478930618 0.1916557790035214 -5.691288663606836  -1.59032616235459 -0.4515196446136259 1.626303258728257e-17  0.4950030257755884 2.521650519233041 -5.495391852657774  -0.4107718940653654 -2.429115409112172 -5.58531208084276  -0.9314707163843408 -3.006923447963563 4.87890977618477e-17  1.161824811771535 2.948440156756841 -3.391384395534658e-14  2.146749234505421 0.002696741478414759 -0.5615078450779066  2.330988047973839 -0.000873250973709995 -1.113141311680313  2.540713632977715 -0.1384292375506191 -1.637427654548237  2.645241452520652 -0.2872312815961211 -2.18637082393926  2.504842461151312 -0.2752146673621067 -2.746850782899552  2.287876352721185 -0.2088259978706829 -3.283011632728322  2.137771360922677 -0.2093380261300688 -3.844996501809416  1.970142554575494 -0.2193701374385486 -4.401638277082749  1.701580801829277 -0.1696632515169769 -4.915066532844666  1.398049690886424 0.4419377546899956 -5.387643705321969  1.183972204621215 0.9208338616597355 -5.413149504812257  0.7621482426349403 1.234356207118232 -5.461782499987256  0.2539805730796886 1.370727420898931 -5.519751404145364  -0.2689415860383004 1.319053689498898 -5.578906487138381  -0.7357170559581984 1.076180709179107 -5.631191713357971  -1.086003096318238 0.6812820615514149 -5.669884670156524  -1.65706961757681 -0.5275128747266272 -0.6240725009925172  -1.829082870387909 -0.8347372240299333 -1.153553189134448  -2.030635262011336 -1.097965926806997 -1.693320688638939  -2.148557703924963 -0.9683820133813712 -2.295450526931833  -2.119047321408695 -0.7521727279271558 -2.890676896601294  -1.972500555455803 -0.7106310836492745 -3.509380855831461  -1.885028119342598 -0.4902108162504233 -4.093718100793141  -1.832050776792238 -0.1313823297003599 -4.617858136599065  -1.636180550340053 0.1151199882480144 -5.165527944859976  -1.540434086810702 0.1014447694855235 -7.644826989049428e-17  -1.339902801239663 0.6191128040412099 2.218327606354497e-17  -0.9949589579071262 1.053322092476122 2.12059320661159e-17  -0.5243975458638882 1.346285776146202 7.754217898549941e-16  0.01399251627036286 1.481823287560149 3.252316763596149e-17  0.5696211504784076 1.47677978548424 -7.207855520904863e-17  1.105448032340458 1.331487337928338 1.951563910473908e-16  1.561367740818086 1.018090979386763 -2.179459114756194e-16  1.860006992193919 0.551530302300456 1.369433074745588e-16  -0.152869286718376 2.506583809965366 -5.568804938302105  -0.7781210310064858 2.335338381675429 -5.639249366957451  -1.340550096787874 2.011723800088065 -5.702178028336585  -1.803922993566052 1.555830170950866 -5.753534898075912  -2.144678763029901 1.000979069722826 -5.790734833138769  -2.346903237737564 0.3811866585909049 -5.812061421922149  -2.406990243842066 -0.2684488461825228 -5.817196438260218  -2.318433628103212 -0.9144163570965761 -5.805488779558074  -2.059391262210163 -1.511004864267824 -5.774580158166454  -1.615755841275718 -1.983465489741105 -5.72306417450185  -1.043145925381342 -2.287058241276404 -5.657361969815248  -0.6986882361605687 -2.420627649803484 -5.024556445072709  -0.8272574030199392 -2.685291244074475 -4.476216325063944  -0.8113210073272845 -3.118860027310894 -4.01596683617901  -0.7618552434953355 -3.481598098596065 -3.504026669625047  -0.7509882165597778 -3.609083979854663 -2.886473298216772  -0.7986167670519319 -3.732483084086931 -2.268445488219849  -0.8276969497603353 -3.810997815301134 -1.64593496945388  -0.7425506523451623 -3.557242155569485 -1.078322423839125  -0.7147449622328144 -3.21189056194362 -0.5511080601316157  -1.482234509376526 -2.778582553401298 -5.854479658363816e-16  -1.970737176894139 -2.437284655419533 2.764697292186607e-16  -2.362818572203899 -1.988727212877528 2.439101268600111e-16  -2.642390785384022 -1.462244173776716 5.051059276813266e-16  -2.812149102113852 -0.89052423419162 2.276851973687203e-16  -2.877946727920729 -0.2976446157883296 -1.219909928720168e-16  -2.842947107925845 0.2978601752284433 4.065446096494693e-17  -2.70313036896374 0.8776122116387211 -5.041496169361013e-16  -2.452324348076021 1.418519584933707 4.379274460317988e-16  -2.098265626135573 1.898294456130726 1.951060033519619e-16  -1.658391347368763 2.301023318502569 -1.789574489620802e-16  -1.154148079923361 2.619757341302747 -2.081203863085907e-15  -0.6042202207747882 2.851073703499478 -3.577841418755692e-16  -0.02416138323675775 2.990516581461941 4.065982498622179e-16  0.5710641261211448 3.028216945076794 -1.46882551317968e-16  0.6414151130412097 2.696325287154043 -4.983333021490838  0.771852374565919 2.778456367279237 -4.445188759107248  0.8805845204306011 2.73078881179073 -3.897720120696569  0.9481597620953167 2.69798349057175 -3.343104559074628  0.9815370707090804 2.778214865778854 -2.789250505759619  1.013475345489448 2.861817704396183 -2.235671116027784  1.055849759321274 2.898356228459238 -1.677594140621302  1.093646323460014 2.92793989028903 -1.118725590781912  1.124098871622056 2.957526991478201 -0.5594169689370629  0.2477015793419729 -2.415655802610486 -5.510682951113449  0.8844491790088972 -2.245867158009595 -5.438931443942415  1.464891069119211 -1.932330028996181 -5.373934600293736  1.955087092649627 -1.489613175355717 -5.319502697776375  2.318355026965356 -0.937054784961175 -5.279744576064058  2.524994411863564 -0.307899182343253 -5.257941630215678  2.574632820450045 0.3531084349228537 -5.254020561031156  2.465743861849647 1.006614152640354 -5.268052816559671  2.183897076015212 1.604484044160622 -5.301550147358176  1.722560240631265 2.07491696755195 -5.35506775502591  1.13806318635062 2.378906583716481 -5.422118662603529  1.742182153284979 2.73179858498085 5.854691697147836e-16  2.262480931380501 2.395264875892136 -2.601681534737615e-16  2.698000706832733 1.954727370266727 -3.903113804560263e-16  3.021530388777258 1.426473918441798 1.707421408502106e-16  3.223363606607101 0.8405687193648443 -2.844806418042028e-16  3.305434793487241 0.2261994274297442 -4.472186606099012e-16  3.269241566985055 -0.3926051469820059 3.171555149681837e-16  3.113478077610213 -0.9924495549400153 3.510830505762065e-16  2.840400132149515 -1.548806515270482 -1.707368614952523e-16  2.466120284856568 -2.042983582774378 9.732831365154574e-17  2.008125599488538 -2.460814027017948 -3.577575055983979e-16  1.482521285196868 -2.789563899556613 -4.886146623064541e-17  0.9057866143556688 -3.01678997208197 -2.439392613813594e-16  0.2964958724913082 -3.130681163554852 3.414395345104792e-16  -0.32338307292875 -3.126978161260848 2.926910878106614e-16  -1.29067345658392 -0.3506098753383553 -5.690421630247788  -1.068897680254163 -0.8451623229646739 -5.663999894259847  -0.6782440885714781 -1.219621806060448 -5.6187489875115  -0.168757542531344 -1.390394566692369 -5.560546895724229  0.3611301401510615 -1.294122251639114 -5.500717901478111  0.8191548613516448 -1.005201308695582 -5.449538098373106  1.16817203978903 -0.5892762115769014 -5.411042670828763  1.960898302630318 -0.551652302616722 -8.131516293641286e-17  1.751009740180289 -1.077278642631261 7.445724005953314e-16  1.394016468000002 -1.516729095803803 1.136104663605282e-15  0.9227767039454898 -1.830301465573364 3.434443593283319e-16  0.3780412068884804 -1.984007749105097 8.617772484356591e-16  -0.1885780664025548 -1.977994130030172 2.357202029695971e-16  -0.7327557451871473 -1.821291124380143 1.942410916395698e-17  -1.191068596016128 -1.491774666596192 2.975009434367945e-16  -1.480405544894888 -1.006855825633415 6.954512630084263e-16  -1.812414118534285 0.2561131097252937 -2.664867827914479  2.421751940242729 0.6298287624476981 -1.933377861698098  0.7556418177061754 1.42269463362527 -4.617654324361507  0.003134751711410342 1.574821943356493 -0.9318675177876981  1.015098001669947 1.51699057942374 -0.9441494884276413  0.6193243625380082 1.764115149411371 -1.862230514405671  -0.4757031201037318 1.549728101933577 -1.958273018773558  0.1126459993007786 1.698838152590054 -2.957602797129454  -0.3405660022430232 1.569615851499001 -4.678135257405353  1.818199099779932 0.7365610114574719 -3.763003518505052  -0.9541815370276669 1.23451227632913 -2.875526912859068  -1.269464226480212 1.016489154450913 -4.672047638709048  1.301562892980348 1.557566760682666 -2.802482532053872  -0.7813756340336595 1.414221906310649 -3.725761628685261  -1.58370798409762 0.5643609111372817 -3.581008460136619  -0.988817348255397 1.158392548936659 -1.014254585170146  -1.607700527190565 0.2800106654898483 -1.030081240453645  -1.388203055800784 0.7951310659851955 -1.943712885648593  0.8261955720421881 1.570157055202129 -3.620947225245673  1.681455131778566 1.410849015379531 -1.876189895849114  1.878739160554727 0.943024132521903 -0.9866418074548234  2.103426639579445 1.000735947836943 -2.593434794762663  1.62623803052506 0.6468498306152269 -4.727220189271843  -1.882943490361709 -0.1546739965127431 -1.761716647663214  0.05868355051519467 1.656538949473053 -3.863342338366238  2.465845305360337 0.2632819454094029 -2.663569745038379  1.994842599423799 0.5019775153043848 -0.4779055074204815  2.1671824130763 0.4980244878585698 -1.027636182799239  1.710213566460811 0.9718796190568162 -0.4957578884333736  1.845584590132108 0.2253887364997403 -4.583879812097906  1.579035044615276 0.2924902970866011 -5.101748935835201  1.409777182251665 0.7868327264427526 -5.07202467441607  -1.039178737375989 1.089168173550246 -5.170746090958521  -1.377687418630729 0.6683636420802941 -5.233117919580046  -1.641402128985454 0.4875654733502939 -4.648722230221863  -1.765467255797776 -0.2695484060062747 -1.079683539430899  -1.617858736076732 -0.08318463488274264 -0.5123563299218489  -1.474019211051276 0.4496529111656123 -0.5150171376928306  2.417677350191343 0.3274903893149403 -1.506992657970159  2.606413084668878 0.1878721166441188 -2.053248089559344  2.165449074798311 0.7968123193988087 -1.45396292862516  2.600656336645273 -0.006773835843206341 -2.43740478330345  2.381707050981776 0.02809296213712125 -2.975460340192552  2.504513650536941 0.4717416349911316 -2.30911703971443  2.103438372116465 0.2819275046793627 -3.536565445820445  1.97649804414729 0.2877154899701768 -4.100759610685801  2.130056263697253 0.4944301869680046 -3.208122180042103  1.738300006756583 0.702207660488591 -4.248834560519064  0.9932284122167023 1.208056140634794 -5.02455095482077  0.5140644577906794 1.424490427165719 -5.074900724110983  1.250876007872453 1.107596580709487 -4.692605533324602  -0.04339227113694016 1.512131231774569 -5.110076001312507  -0.5639642781509139 1.38443176443508 -5.176141353356434  0.2207522612730608 1.577039373505649 -4.659386907994698  -0.8473664162579051 1.361507365063503 -4.68460417050473  -2.046440245684059 -0.5545777954238127 -2.022551906436787  -1.900001581647655 -0.4870622793164346 -1.445933851768296  -1.74619456419696 0.06297360768449765 -1.395751063526886  -1.980589212299016 -0.2004006437879094 -3.103295699121013  -2.055718701680112 -0.3331013733808973 -2.473018687114451  -1.866843823777159 0.05972794886641818 -2.210544633124157  -1.735111940630799 0.2264347392014123 -4.098501066030539  -1.851453130856587 -0.05079780772129905 -3.556068340848144  -1.702374321266013 0.4128159938214919 -3.123299948888693  -1.443372089381586 0.8018319832987931 -4.126031054644569  -1.193116610556566 0.9131183127648548 -0.5042572536778857  -0.7617841448953337 1.26185015650651 -0.5064335650147707  -1.357234423345596 0.7596936317508123 -1.016351078749223  -0.2570597534168643 1.44460854880636 -0.4671839371376552  0.2865999669780812 1.50585258955267 -0.4682543546151384  -0.5202215706032149 1.430656404403257 -0.960788775598492  0.786438446826528 1.465545441561573 -0.4769822118158717  1.299698015207135 1.289156220511655 -0.4681543222045768  0.5120072796924813 1.600683423597173 -0.9225544620454671  1.486888463400709 1.288744024975868 -0.9491075037044994  -1.431777231514462 0.7883075795169869 -2.768285972464356  -1.310503436883951 0.9375612563724571 -3.226498853896214  -1.180876969431464 1.025167596707668 -2.409311978381292  -1.605226111277466 0.5290780079365257 -2.303835214615095  -1.679709976772345 0.3438912431727394 -1.848742884720995  2.098910715444013 1.064599038196103 -1.893323527032813  1.797365006167871 1.196637962185473 -1.424276493553684  1.935475481999288 1.256607379750235 -2.236672869122162  2.306009208248875 0.8453335396295819 -2.268389136556566  2.317436302411573 0.6494264057431922 -2.642148598226893  0.4177623949251101 1.588940235632549 -4.246318857627101  -0.1419676198800366 1.624759521235822 -4.271191546455912  1.344072145735567 1.149313687757809 -4.205037874458823  1.382955959060634 1.228070218777103 -3.711513094954713  0.7899187268349621 1.493929671236531 -4.118880498056863  0.4474011736000647 1.645977644553885 -3.746413224686108  0.3090944191923946 1.724251923062502 -1.386077035136716  0.8260328382121735 1.68215465716606 -1.39461857307456  -0.2590557954084456 1.630921095122224 -1.434022174601036  0.05742929395098034 1.732153448229184 -1.913246037169012  -0.757913352982536 1.392617432664445 -1.48236831308671  1.172430794462525 1.653802454270894 -1.863174119978916  1.361987483040371 1.489991685458368 -1.403448422860579  -0.1845440188656385 1.633306855673816 -2.458319647239838  0.3648291170832326 1.746982438471246 -2.410694770735236  0.7180221198516633 1.712360286238412 -2.888037071740936  0.9708793669497073 1.713263906263 -2.334572435586816  1.513628331166562 1.528595126565832 -2.342412821728711  -0.711386793685716 1.386368686033412 -2.416759085481729  -0.4492113897151291 1.531477998999141 -2.914061913893197  -0.9741757009531234 1.222731993673645 -1.954665026067804  -1.2116861869984 0.9975410923898951 -1.477315134574501  -0.8696879237957504 1.327197782705456 -3.30039964636054  -0.3455460474906951 1.589616706127413 -3.340571232887753  0.4744029965129333 1.697264157770341 -3.295648577167372  1.064575640457199 1.565476965081935 -3.212111046428535  -0.3767324560580967 1.588551936228822 -3.794246286307474  0.08500045157501593 1.684117168918734 -3.41073331569457  -0.5740653683803552 1.525586266110163 -4.202025119286376  -1.048427423379399 1.242999609919288 -4.198861104741133  1.594079208810183 1.183482814396575 -3.298816761870791  1.940741808620609 0.8545229384692569 -3.168676584003021  1.733238495743969 1.318050914221446 -2.711463585870448  -1.238848988474318 1.041518301758874 -3.650080943192068  -1.530995080042097 0.5567548622157087 -1.483902789706762  -1.796699271551184 -3.28656030478485 -2.851404734464556  -2.426990874688335 1.381182236701202 -1.03802093124846  -2.950169445212283 -0.275468016176804 -4.879191127471304  -2.897577679220372 0.3050138433684152 -1.02884985044584  -2.446655166300747 -2.116049746404193 -0.8731074684786084  -2.621996934072142 1.002373337715043 -4.716503969273464  -1.843715326244001 2.004902676266991 -4.49938175572798  0.06447743516019619 2.998588499937824 -1.628239757281224  -2.889362639293654 0.3201800361519024 -3.763162997063439  -0.09348303996251761 2.79284323029274 -3.737622440778471  -3.018092027571705 -1.083289360338533 -3.873503008752151  -3.236650272049273 -0.5454577388884821 -2.76643158566657  -3.094062150288026 -1.844375153393265 -2.775227129676637  -3.239718801653829 -1.190632915408742 -1.928813669063731  -2.799782248172404 0.9518507947714921 -1.994704286501782  -2.108762220905737 1.901522499191242 -2.079830948738545  -2.573448934492808 -2.172313870810983 -3.960201883988026  -2.521163133954028 1.319805944610403 -3.026498441858041  -1.775999048376719 2.095239653480269 -3.232473234193922  -1.87446902485006 -3.403285585678944 -1.698011542703013  -1.104947213300035 2.635461027035611 -2.088729557167228  -2.932140289732409 -1.006026695155506 -1.052197990265442  -2.504275515513611 -1.452249806946839 -4.93313507034302  -2.649922431606624 -2.791101790354952 -2.185526043520325  -1.618206908807817 2.261025282441001 -1.08355493899793  0.02930085421490964 2.839483853992491 -2.681131739306779  -1.772994767027484 -2.987921271663216 -3.824874024343412  -1.744969715279553 -2.152425439395018 -4.801305327039995  -0.09241738120940313 2.787557456451053 -4.6955908767284  -0.6585455004390705 2.810469979197043 -0.9516822436043484  -0.9437162496137136 2.590344132686799 -4.049483000530046  -1.834569754131645 -2.839758236741633 -0.8739379936263278  -3.206912983802599 -0.2282411776238673 -1.919336483143113  -2.422213126823265 -2.703852054571983 -1.396689335528739  -2.491672388877896 -2.724904958618787 -3.081739468027225  -0.9089728013294949 2.595198154314032 -3.158313915600486  -3.022071778788409 0.4009525136292677 -2.819506616431027  0.3114106394033945 3.013731259984881 -0.7912372691531696  -2.983613746639406 -1.995867328629267 -1.705615262939733  -2.390578987018857 1.36093823311945 -3.947734339069541  -0.4453608655247596 2.598795714531702 -5.17840474813969  0.2021611861843776 2.704851173329609 -5.112437104434683  0.3419205799391765 2.828205468508878 -4.57604394955198  -1.078904193480728 -2.293954001749159 -5.193805489583072  -1.654936337117123 -2.024798573554865 -5.252575965594773  -1.293441857176759 -2.441715132912041 -4.65518869486337  -1.374175979723866 -2.906692856711192 -0.4427608151305927  -1.309055635267437 -3.238841819983346 -0.9451094665494315  -1.856468109229763 -2.584362590916292 -0.454470335879205  0.7384782038713884 3.01259191242087 -0.3959690020077462  0.1456794083393051 2.987406151783305 -0.3954029266348589  0.7060643819495596 3.005253377201461 -0.9560688643680075  -1.867945692595721 1.828436278643528 -5.146318365154499  -1.348385800842819 2.233015588693306 -5.087863113334572  -1.41772310302826 2.335889539558674 -4.276682133133282  -0.8858703482286758 2.522201572632762 -4.85697114012024  -0.5277635832536921 2.721748376734503 -4.374768365933551  -2.563210618912797 0.7239790085282829 -5.30595984532331  -2.264193453665141 1.314754145350834 -5.259710905552767  -2.278486142256593 1.539590825537426 -4.610788242684109  -2.685683135328383 -0.6050137325529863 -5.373152635104897  -2.700786042577803 0.05951133529169025 -5.377223699972305  -2.86371881960233 0.3860538882860838 -4.811213971899214  -2.055255174846418 -1.712577262644233 -5.326243303592683  -2.446968675352562 -1.204319208223763 -5.387581324298655  -2.819082719331851 -0.8981178262683959 -4.94709946909872  -2.149587896180813 -1.833392018259705 -4.886068944266928  -1.282327416815695 -3.283377265275714 -3.692702070681352  -1.309239170245776 -2.868482059132759 -4.182033841082581  -1.756718953063117 -2.565763538217125 -4.308741660593626  -1.307132417021455 -3.541156638086555 -2.567746241607225  -1.298679645087878 -3.44264531823979 -3.187296309480359  -1.809805053962994 -3.180565002517027 -3.349602752884492  -1.33142059479899 -3.530574121288387 -1.356911815843932  -1.368268156919799 -3.661436427316637 -1.996064648470307  -1.861819511713886 -3.395968032454614 -2.287210243973761  -1.871158463906192 -3.143112657078652 -1.268330986828559  -2.495168941670026 -1.763690490130277 -0.4436867753085193  -2.177780380724571 -2.251569151365092 -0.4437868242688112  -2.164886577208782 -2.498417341333793 -0.8564942181144719  -2.844562388441698 -0.6445272654676694 -0.533216592753268  -2.727093999417351 -1.216389141997828 -0.5354534379385507  -2.734419045883409 -1.577225646816038 -0.9415193392539156  -2.766740468922719 0.5823290884953495 -0.5154487289529139  -2.861099985757119 0.001912606931774657 -0.5164343414919128  -2.972134074054311 -0.3496894717680734 -1.022779129181317  -2.242013248158139 1.623555673504373 -0.5173812300093034  -2.559104379382095 1.126390522307454 -0.5188628524244864  -2.711964787929044 0.8650001765109473 -1.026638660949432  -1.365688457413912 2.408685021959098 -0.5400652185792369  -1.834477158123127 2.052972180538929 -0.5393957831830227  -2.054291353149817 1.850592361215454 -1.057056272178473  -0.3362037232823791 2.882788110636315 -0.4757643637101894  -0.8879257046622089 2.675382521697024 -0.4740691454899241  -1.159297354908551 2.570751576064231 -1.012012406050905  -0.1819325635650936 2.948985946679829 -0.8677388962929373  0.3413335961642539 2.831824312759549 -4.087650390183354  0.430550697726025 2.780883935139613 -3.539422324863893  -0.09680099959556587 2.819040058547312 -4.216071121682959  0.4912693566484888 2.806153319800718 -3.016594419251232  0.522654062941648 2.883168635076714 -2.463157229548851  -0.03011393073983472 2.789860300454558 -3.208360470888267  0.5406463919887389 2.952427526144958 -1.934565727448802  0.5829998797659326 2.999959050206797 -1.37574514462485  0.04668261723814148 2.921936856736922 -2.155171358167104  0.1874126076671818 3.019811465955469 -1.209615171232407  -2.299448636674889 -3.140239275475694 -1.936768036047714  -2.258460641280657 -3.086590317663377 -2.532045052218237  -2.58326158407878 -2.769797689853237 -2.637280991348514  -2.166247145839198 -3.036184226391861 -2.973693060241238  -2.165357857299134 -2.896471610852183 -3.46858739117557  -2.622534744843381 1.172006928049934 -1.515078638434665  -2.886232863776688 0.6437331783519884 -1.505160047827207  -2.28879431978894 1.658093901390698 -1.556194374906596  -2.487166607796395 1.450674733747189 -2.03615508417382  -1.884370801761877 2.103184275053152 -1.579006932878582  -2.962267395870953 0.03071708471682962 -4.319086731381266  -2.766704804273562 0.6657125940558406 -4.239060520434188  -3.011889676018744 -0.6813488757979725 -4.378282857254909  -3.026395633885148 -0.3737996576082729 -3.825930067872935  -2.852309754320878 -1.307117311824867 -4.435788825682238  -3.051501527397451 0.3788491448650859 -1.952592742721734  -3.062741862505809 0.04052484360871023 -1.471439809171579  -3.128523442246327 -0.6168172387901846 -1.465033132038555  -2.975405751734765 -1.505505056446999 -1.37005542034509  -2.727391403253689 -2.061630251138083 -1.281729327024109  -2.434343441324879 -2.409890592596257 -1.134964767482089  -2.136244333682692 -2.77922409723572 -1.12826312421777  -2.731171227517204 -2.365136199392181 -1.534696875031858  -2.515640916963491 1.187201239179645 -4.331550065891375  -2.142454678486707 1.704390006602225 -4.222689576862083  -2.674664879798793 0.8568583689341559 -3.857083534317796  -1.377039970997943 2.37084342817921 -3.640789759290631  -1.80702354361857 2.046934870631138 -3.865909402344397  -2.109432479291034 1.751311475927011 -3.592167299745171  -0.5492492896034501 2.781326645445177 -2.392826779397999  -0.5365385799712471 2.880447911213748 -1.868053971679437  -0.9049614848057193 2.77418484804312 -1.517903693420206  -0.3091824951454059 2.959907143804369 -1.286530459844041  -3.139659523875145 -0.8144062586941074 -3.322645977972114  -3.082179725440869 -0.1088674741122982 -3.268710749275147  -3.159151441458789 -0.06571023120499311 -2.797144542938104  -2.954215548531608 0.3600682621950329 -3.291044863869499  -2.801726238119977 0.8758074279620796 -2.92736734075578  -2.741010109081128 0.8371837122606991 -3.400958146266893  -2.444538011320979 1.332765052082617 -3.485595116431115  -0.5067013779855215 2.718324219061339 -3.447498311987891  -0.4453103616491731 2.741781631702958 -2.921303984203753  -0.5275492305985864 2.727413140034879 -3.892530561686092  -0.9267675164217745 2.593853200117289 -3.603873554592717  -3.071269409898918 -1.467031714147781 -3.328045224482366  -3.228792257482421 -1.201568039965248 -2.781278327166761  -2.864888847646413 -1.654632005112205 -3.936379462965654  -2.874088570208506 -2.026920104478269 -3.379530437463615  -2.536972140056729 -1.810722680256833 -4.445281958164627  -3.224202928096997 -1.528801212591686 -2.353591604798218  -3.288339833822743 -0.8680527787800951 -2.348774314687315  -3.255602419264406 -0.7084104194758237 -1.918533242873596  -3.254647738414796 -0.382280153114566 -2.343570667507548  -3.154583606154721 0.09741725288625976 -2.370452038625173  -3.113528386682484 -1.945508958402164 -2.238744607420012  -3.140137670558573 -1.599888283466486 -1.808312771172528  -2.556453913915297 -2.467103203194841 -3.530481672925854  -2.844730166275929 -2.315325901864264 -2.941878741032327  -2.923935724020547 -2.346455861363889 -2.487740650881551  -2.869683018200169 -2.422065268535372 -1.933092354674931  -3.105369936857963 -1.100816287310581 -1.482400392300981  -2.334115017973986 1.627131840122851 -2.554714837023435  -2.685710217879208 1.151559446796123 -2.511936953875685  -2.938162737844613 0.6888228884096105 -2.407905563487553  -1.947050994343174 2.003817622530865 -2.656759004211255  -2.17509534416566 1.73213237678978 -3.132675178067478  -1.639305263571239 2.312527159993682 -2.088768660666302  -1.44118824567921 2.366555535894597 -2.660742555901719  -1.396792063096293 2.499896316134591 -1.582428365119374  -2.183213859405945 -2.192307145231752 -4.408966816730618  -2.202808471334643 -2.61354406118156 -3.91786180945832  -0.9980532498534718 2.593898526296412 -2.620714591591812  -1.36235191395667 2.37971767496142 -3.195956755647159  -2.175833851776633 -3.083245939583671 -1.526809066175542  -2.585152196128108 -2.78482663820383 -1.771003322555691  -0.8829291461394683 1.479793216387353 -6.575704934951995  0.2766993153668174 -1.818530824721596 -6.514487806845397  1.750655017262655 -0.7557500303779782 -6.310863568305423  -1.763533845256053 -0.1819773446261669 -6.662332417990148  1.006983213177694 1.72666557015262 -6.324003627345817  -0.75444984066247 -1.612865137050554 -6.73622538802003  0.04209952254192846 -0.9954187288051465 -7.390469164785242  1.957557811342623 0.3174451380410162 -6.26026783437111  1.051171507157111 -0.02856624750864596 -7.250255558085006  0.9661300418467876 -1.125684819177863 -6.894076139439747  -0.1152451365724777 0.02819717517283825 -7.643257973264383  -1.688446139327317 0.8217366264906261 -6.427136690836472  -1.052847088764496 0.4468009480608675 -7.164338769048732  -1.004068771639623 -0.6032267589257767 -7.289757870269476  -1.62423571528303 -1.057727461721271 -6.594836425290447  0.1967369737074621 1.177272320636387 -7.11253232147172  0.007123105481395548 1.907288449034818 -6.383279944391933  1.880887067850328 1.230335410333059 -5.989483654328358  1.282397146083101 -1.578428391866286 -6.123756471578126  1.325215468925662 0.9281382060928245 -6.755814354196925  0.2527576299677597 2.234747224236717 -5.954210449983535  -0.3900877753568537 2.145071631192927 -6.029548224335283  1.377349646358768 1.919149741210231 -5.855311249125531  0.7600242447678516 2.153542331238259 -5.931899136019145  0.5156986943058092 1.85469230337693 -6.385966445723838  -1.200185927499158 -1.827428156979613 -6.252857366526867  -0.589246303846419 -2.065037208353069 -6.189309046894493  -0.06452965787350806 -2.157002315098049 -6.069528835366565  0.5909556881547301 -2.060994572633054 -5.993740265846203  -0.2401686652777571 -1.763841975284436 -6.662621194311739  -0.8396191893551953 1.928178153556917 -6.125119098890043  -1.361425526241418 1.538421041309805 -6.186423205580775  -0.4477180094126467 1.728852460875954 -6.511806921547517  -1.758917908141261 1.197927584773389 -6.102409734688479  -2.039163444217481 0.609229622432692 -6.136897132448475  -1.313783880113797 1.177154481574302 -6.535686826729108  -2.075222036566522 0.1024901651053931 -6.252668794235882  -2.072799538108025 -0.5528262298867419 -6.258127979839074  -1.758216673338956 0.3293100895310638 -6.57403680843542  -1.990240149432031 -0.9934955860053395 -6.215266638363839  -1.652077538051144 -1.552242000357546 -6.191789196773482  -1.727182161959117 -0.6272832855338302 -6.658928676457439  -1.223218019309886 -1.376278392308042 -6.713315240524358  1.097460302780119 -1.935093167398315 -5.795313710884321  1.632274029320451 -1.546941755633539 -5.731432142039732  0.8009705617575472 -1.739196429651254 -6.348472674132331  1.879989776399995 -1.13966707819974 -5.833127042979772  2.166151228810547 -0.5399638522310067 -5.801564962680133  1.548526503824273 -1.191188140685183 -6.242814589697495  2.274063595159427 0.002582566603381722 -5.778726431842474  2.233690733128601 0.666325042944202 -5.778301584242479  1.8989806386358 -0.2261841720410597 -6.317507996558731  2.190470439772883 1.125277458868046 -5.640463358758119  1.824056510354441 1.671865804710657 -5.692185744297543  1.948987867498099 0.7830641626621321 -6.147309553605247  1.476548014153855 1.511329636432118 -6.193038946844823  -0.9929785868652982 0.9898214602578443 -6.908588838066212  -1.386057617419929 0.6429967182301155 -6.813251103247325  -0.3561324137975134 1.373896551752989 -6.893888942466704  -0.463772002184498 0.8796476913292457 -7.24458399760351  0.1023662663490699 1.561665148813906 -6.76692956480775  -0.3631358657338108 -1.345941891987472 -7.109449449479221  0.1681897039850337 -1.449138878919901 -6.993121737939842  0.5252865600743001 -1.095608571782314 -7.189271532836559  0.6414705910532961 -1.511874654172726 -6.739182574749013  1.136718046829478 -1.36591785984753 -6.522031079806509  1.452226909262396 -0.4060060480189565 -6.827812889170215  1.543297802848372 0.1466451852070804 -6.790799491182361  1.385364354435637 -0.9582665593231756 -6.627081359658598  1.058232560497594 -0.6013883011294688 -7.133696784746346  -1.440508854315864 0.1405123582531203 -6.948327239212883  -1.069283391040196 -0.07209474784955242 -7.285786949432967  -1.415228453994309 -0.3959376449473065 -7.010747939461719  -1.33487260339199 -0.8409651934336282 -6.967244029112607  0.6132018706622064 1.483810053780876 -6.751406930832172  1.186257720378874 1.350835418073265 -6.567866805252976  0.7931761756353567 1.100812803918495 -7.000581991128249  1.615371142054996 1.086689219897422 -6.384444149975943  -0.9134540784814299 -1.153736625074558 -7.078080360784051  -0.5051934775984649 -0.8411252131157207 -7.427220700913049  0.6030249128568649 -0.5508263418035819 -7.44075933239186  -0.0344692186548918 -0.50700668123309 -7.609554898082585  0.5071905721498189 0.00565876274160283 -7.553644956046899  -0.589395520313964 -0.2928000649117995 -7.54707501493915  1.222237974507334 0.4616814658970652 -7.043951680711517  1.67728499422269 0.6338332916270968 -6.539463774670716  0.0408174798360556 0.6445921521884137 -7.463740258394367  0.6871130707328064 0.6368269267482504 -7.321875049459743  -0.6136132831907374 0.2576447429816319 -7.474634939222828  0.2855078406857883 -3.595078178144451 -2.852098656148198  2.554031317681191 -1.106103534534935 -4.215320534583555  1.895149977500916 2.455733356532814 -2.795357018486742  3.46346602267962 0.644782995315443 -1.03531682219837  2.501967896804486 -2.699042846227576 -1.053865118107772  0.559950272603647 -3.692960618855432 -1.155563933692815  2.409924309314659 1.681040651000963 -4.226744228127401  2.946731885081543 -0.05817038808162964 -4.077237664690684  3.177788406372449 -0.7758497058841795 -3.140199809049748  3.224316567907218 0.6654846276463589 -2.953475305995619  2.674299744812683 -1.969404688761123 -3.203853281853928  3.230616293677946 -1.481657779225346 -2.01417622732078  1.397555429469766 -2.394914884434424 -4.184740353571961  1.906408377111617 -2.833818787216243 -3.103598853945592  3.538767844362314 -0.6362473647365634 -0.9954010263744906  2.78520103080302 1.952076571976177 -1.090153256853466  0.2302634264270802 -3.09526435989893 -3.950648363706328  2.533606578437583 -2.465386219215866 -2.174675611840195  1.299306042977646 -3.453473529665754 -2.031662815715585  1.976369379873897 2.577680905550471 -1.740408504655088  2.803075692383374 1.920396643029313 -2.27606892162969  3.159331426402571 -1.760620797051876 -0.8938788080538242  3.568561431557733 -0.03041597204547365 -2.021856751346958  2.661003229898833 1.625937243411613 -3.279200846903136  1.787213707748096 2.323010417865214 -3.929015316073913  2.8513158986832 0.9524380699831962 -3.960299840249967  3.35101030445459 1.090064602743026 -1.995603404526189  0.1729558275097012 -2.550654332751668 -4.680016323522311  1.353785382135596 -3.304074431584795 -0.8343343895261243  1.902957732797925 2.651765122266475 -0.8349391879172793  0.1049297574610913 -3.826139146906111 -1.963365722385799  1.021459828672063 -3.240237837700584 -3.378953087371633  1.278562054318139 2.488368560356546 -4.918716258887589  -0.1193595322596511 -2.450057083143247 -5.12780600202059  -0.3271223737171312 -2.634270174261153 -4.588243556603092  0.5239959454479415 -2.378881191894897 -5.056686361424391  -0.2191504529425794 -3.311189809265933 -0.5572486490735968  1.54701098272301 2.838921784305335 -0.4181826995802329  1.50730131033817 2.814097810573276 -0.9791319985822539  2.104966645511401 2.558113974087061 -0.4172166328380487  -0.2969386916392899 -2.914213543139314 -4.235397311320548  -0.2619228016653473 -3.334043180514514 -3.762244441187994  0.1964298094866632 -2.797245220361797 -4.294004611749787  -0.236361064806257 -3.593018815700558 -3.189302800078896  -0.25623237111306 -3.689628302871403 -2.565502315624742  0.2796201615578177 -3.446450836003271 -3.448575646531  -0.3472088459196801 -3.806923199226067 -2.123377235220168  -0.3321670485093296 -3.84606714533206 -1.475350223411071  0.1924575743666204 -3.691765990644843 -2.402829822441985  -0.09482779572051046 -3.673955231029528 -1.085700923377777  0.4245820399557239 -3.359300442187437 -0.6107861410459233  0.3439148001887478 -3.842671865877957 -1.554312703154611  1.381288596788038 2.541971163520425 -3.635748086266146  1.302205988052351 2.599615234980751 -4.187056236498294  1.783334249085369 2.234410996471372 -4.651070001333041  1.469898423278304 2.706855340899588 -2.525578316587281  1.426971983372119 2.590751995764266 -3.072416999172048  1.814186777385058 2.343598038636836 -3.353949221966398  1.540585540214204 2.767865391424452 -1.430175589860653  1.508247670276634 2.76138895546671 -1.990205570460591  1.956332999882941 2.558882182249056 -2.274346240286005  1.932330737253818 2.600585194592677 -1.287110077553426  1.640430224932925 -1.897893057001838 -4.737191824871409  1.097132021871438 -2.231245416623027 -4.784763849911396  0.7986770470434523 -2.507897808932986 -4.453920744593869  2.539941808669234 -0.7071799629999085 -4.736761599585139  2.219854118524135 -1.27329663029723 -4.757215290287397  2.033849755214095 -1.804140041679678 -4.244491727555176  2.754269670518901 0.4783906357067721 -4.688189432902084  2.724180767005949 -0.1807321948890696 -4.663697507417459  2.797768106987717 -0.5975892133521891 -4.167052647637593  2.092122833906573 1.901236025116927 -4.79832409889331  2.474687618464633 1.362766813913234 -4.757532913238951  2.655813141915292 1.330029891581013 -4.098985775581568  2.672026225296707 0.9839296820977484 -4.61806757797237  2.952054195552046 0.4539173463931658 -4.03282048063151  2.129401989854563 2.033802384888455 -4.082024523477169  2.956325929913017 1.724084151182416 -0.5417465617412728  2.554505976517287 2.205893196551943 -0.5450185577647423  2.373114644831712 2.339665578200863 -0.9651440450385302  3.42830673436723 0.4418420697132257 -0.5084207794629333  3.282312118921788 1.049324491308745 -0.5119468009307834  3.202152238064482 1.338478020091054 -1.05868642779754  3.362229811249874 -0.8232325948023764 -0.4839759116102113  3.453757365594694 -0.2066193764957036 -0.4884463866555875  3.561559835030664 0.008065017822959146 -1.007043787408847  2.82791966201793 -1.912983264902372 -0.4372640199473439  3.146789866561114 -1.38139879283516 -0.4417761089865959  3.399157298352398 -1.214252372454352 -0.9327629925804288  2.001507890967384 -2.758277393259991 -0.5171265648242702  2.486859131868563 -2.373923711136963 -0.5246831478795579  2.864360665032908 -2.25575223767379 -0.960769228256091  0.8210833225115378 -3.197934190031406 -0.4275377822820008  1.407074929516853 -3.020107387116789 -0.4332334209419367  1.959623613209839 -3.052105347049143 -0.9149267635844875  0.9619832786264138 -3.518924895757943 -0.9827805671506491  0.6360666077531856 -3.197211366466129 -3.687210983814933  0.6653015023302422 -3.457263959135359 -3.12496989782902  0.7165898295661655 -3.688309338560704 -2.011626112869035  0.797238135033 -3.539122514459858 -2.445254716354153  1.162562321089703 -3.351803814805179 -2.706101217061598  3.06743418223248 -0.4177304090241169 -3.610584445349257  2.904294264840615 -0.9539106462445309 -3.696773804153695  2.977316420281559 -1.393139536715018 -3.191650575774946  2.626638952181581 -1.544846343395601 -3.718041904123395  2.088671613945978 -2.2332307205092 -3.745437534465066  2.428988037543526 2.302517149099572 -2.011082569090985  2.380008549422831 2.22809738742972 -2.549717938775512  2.740183907111197 1.779902467101131 -2.781128135966135  2.312383531252873 2.081914153013447 -3.053614717119443  2.238442570458754 1.990075931269008 -3.606630855551542  3.601630051729715 -0.3360876830167999 -1.509131116653184  3.571925972487984 0.315658028350097 -1.526789326282952  3.433618315573771 0.8764539813970104 -1.513937256390142  3.113791692954312 1.549950346367441 -1.53979621114951  3.513086784880981 0.5404107217646769 -2.015443807456052  2.5683645543697 -2.628764947630822 -1.628687578121912  2.917124188671599 -1.996859543047075 -2.10381115284991  2.961733227716522 -2.154684207368116 -1.554102962268837  3.262364071584469 -1.652795994474477 -1.462069697393381  1.972350671941691 -3.175662352458152 -1.560462361435741  1.95863751012514 -3.014651034915467 -2.121559169036215  1.394126846094949 -3.52473926713762 -1.425948764343059  0.9703024628948307 -3.69167042475984 -1.60333665679004  2.525581296353177 1.646005274118732 -3.75104986401876  2.776490797717972 1.30012998403094 -3.62470373649906  3.106103283603078 0.3059148759055755 -3.521169529377791  3.269201203607802 -0.05459463349268654 -3.070064573927045  3.025041826608375 0.8051722875113362 -3.453291155566636  3.437049408808935 0.3221744740348607 -2.499937486087398  3.408342054845003 -0.4070804989023493 -2.591351996902745  3.243802894583054 -1.142322876572266 -2.586604735252089  2.972463617276452 -1.736715704747813 -2.61287407421431  3.476288054297981 -0.7745055173122289 -2.033112496143482  2.98954807406137 1.167285249612337 -3.132894557100963  3.089514504908519 1.332044884584914 -2.641320627108799  3.115229428293969 1.528288869937077 -2.141679213619517  3.321645858131155 0.8884514603620798 -2.484751865998488  2.624715997819451 -2.23389608186405 -2.692951470847319  2.324758864550709 -2.433960581971631 -3.168684443534758  1.681167248198888 -2.65354004050001 -3.678265845786892  2.232908184249536 -2.663664137810871 -2.641544074083697  3.47168220507391 -1.084095468066164 -1.512225793422736  1.479762943155472 -3.064205164073444 -3.252215637647457  1.222580078691816 -2.841185540711059 -3.802499119227535  0.8262453374850666 -2.774703060611641 -4.093726051493614  1.604052184960346 -3.145629414207413 -2.567975868558364  2.814610086296792 1.954942723316833 -1.682018710226283  2.409469211510789 2.303302636032545 -1.413817740484859  -1.790079458588943 -1.826213071759381 -3.06787996848642  0.09220612634997599 -2.384312164331725 -0.8555720940384237  1.908761850346146 -1.204475444012711 -3.688144121215764  0.4297174160517599 -1.652928378330525 -4.693545765933721  2.294368396000672 -1.079856024183303 -1.514614291438732  -1.648562755577309 -1.431595833034405 -4.131717535651322  -0.9008668211948052 -2.354954728633969 -3.627622236772203  -1.111208953101715 -2.604508362341075 -2.527001557944058  -0.0635454996397042 -2.750140718833764 -2.958502330344038  -1.46699129127756 -1.923551864499343 -1.175042354117173  2.261425588241301 -1.280110829584862 -2.597870558599575  1.690330381830982 -2.071589649529009 -1.90007132539844  1.570152961633404 -2.039305719087589 -2.96478540875528  -0.1191069889038423 -2.857345040626311 -1.743299774459956  0.9036622425534019 -2.638802088779294 -2.332789956067599  -0.6628887345016873 -2.263782391976268 -0.9293987146536553  1.730904258641503 -1.638812087600871 -0.8611973156384534  0.141673653386521 -2.260701521917818 -3.901405176998409  -0.8470673353909813 -1.70962575083349 -4.678919852462908  1.095875093075257 -1.82750516933374 -3.93438721598508  1.420792171241238 -1.110679280827544 -4.608013320755417  0.9519204323193862 -2.444067354547665 -1.262039291095032  -1.877192140601456 -2.021917293860108 -1.993175562586901  0.8115159309231021 -2.421135118030843 -3.268151939582376  -1.566276231496339 -0.8992607819670421 -4.94498933666139  -1.037092767802299 -2.634955172645891 -1.647540856322685  2.134137957898835 -0.7525431464169948 -0.6990505079284821  2.26321721181684 -0.3788516285241416 -0.8957292044447887  2.087754814987927 -0.371805266819503 -0.3426498028969028  1.952480684223111 -0.9190389003431275 -0.3459920234381908  1.456295296926503 -0.6309157277813587 -5.04533948656416  1.768100790424574 -0.7022683972083076 -4.548844770737321  1.123571930066887 -1.061864455892514 -5.03188075897771  -1.770365772652145 -0.5306440349977689 -4.80825189432913  -1.509048091050316 -0.3720349132180115 -5.372320599209165  -1.329328296660683 -0.8801620212955114 -5.313380467064142  -1.502965679544698 -1.160235541401764 -0.5794039746256195  2.520146444657252 -0.698297575430646 -1.838353829872399  2.379525690638805 -0.5515636771550975 -1.290426343076054  2.225365519528411 -0.9198670465813734 -1.103077474554082  2.354683125710743 -0.7646630114161782 -2.969585247404664  2.513301643379576 -0.8038921392795964 -2.402498616272923  2.340174127104243 -1.213641029598494 -2.05026042458579  1.992478434364165 -0.7326873901830405 -4.065654436704741  2.179263788700973 -0.726324530588077 -3.510596607456627  2.104071587876304 -1.252176732811625 -3.150007253910026  1.679698289315946 -1.170259653474309 -4.157362188076769  -1.938972109281258 -1.444841653005669 -1.533713362115279  -2.089066923999636 -1.512044058816814 -2.13870821726427  -1.239429756527536 -1.626325150502141 -0.6483870176058826  -1.714828174683489 -1.40185600594385 -1.120543379462824  -1.725143393077625 -2.007922860312732 -1.549152571215149  -2.069217214883062 -1.427554148797483 -2.701158639572911  -1.957864444066589 -1.289342264294811 -3.310086550237301  -1.866104606072803 -1.945139042744901 -2.538695279135915  -1.872688649754771 -1.08412129185485 -3.833205792973275  -1.827422517713262 -0.8017523168111819 -4.393949452123971  -1.728691714744352 -1.634287670761723 -3.603045733960727  -1.62023145055048 -1.173323116995019 -4.544669963309623  -0.9830470244331728 -1.316972772881943 -5.198549142532477  -0.5072265691014087 -1.546225911685292 -5.11787415232623  -1.256179223358865 -1.362272489130162 -4.854474447233144  0.1315852293458596 -1.526813233994032 -5.129239716056045  0.641016335272786 -1.361213827759879 -5.088543673954814  -0.2045953896232379 -1.75946545817874 -4.729008424802447  0.9502271741490278 -1.423850605769734 -4.676083109217114  1.738814035320022 -1.356466225379907 -0.4315917445271115  1.342037473394553 -1.754459456516344 -0.4203246211166004  1.973306076511255 -1.217560190584962 -0.7632030825593443  0.5083503311112896 -2.113171052205517 -0.4250882469567606  -0.04076997326292887 -2.126556288805432 -0.4527030182111684  0.9270366195053179 -2.112211124982021 -0.6449930964863557  0.532536242251386 -2.462870632163882 -1.028604379755918  1.37030085285757 -2.07977805127259 -1.041206546382821  -0.4066912049928555 -2.061870905899165 -0.492686069640012  -0.8940660716480654 -1.827802652842538 -0.4871564994587285  -0.2904230147922438 -2.345383222198961 -0.8760876368453309  -1.081921713786533 -2.117302900512081 -1.02876523024184  -1.398849003443301 -2.15112699413117 -3.37378453845071  -1.318729676317436 -1.946167656349571 -3.910983561653295  -1.498981253073341 -2.270017474284633 -2.815324928791236  -1.019828056154173 -2.50777140936528 -3.085709453600475  -1.549191152561003 -2.378702008479979 -2.271898603000573  -0.0142001833829473 -2.667634084983279 -1.270634465365316  -0.4063422890529468 -2.633381150619279 -1.285869784049943  0.4324490635663666 -2.718461949536749 -1.478121410299072  1.764080564605927 -1.642393338078037 -3.339168642963239  1.949212210106111 -1.685071369776041 -2.791026949555977  1.536055821912249 -1.551121134042816 -3.836219513181041  1.356171574217115 -1.96215378161405 -3.467921694426101  1.262386754816828 -1.474555305959137 -4.274903177539222  0.2828002096578402 -1.946686607159585 -4.290498846064817  -0.3525520669623072 -2.024129310567297 -4.317304641768117  0.6311823966368799 -2.072826586125847 -3.938714811629545  0.7649811336820975 -1.744777889743888 -4.31700580455817  2.021172964112138 -1.710774488720232 -2.250443963616635  2.042923025999587 -1.610654953057137 -1.697408897974344  1.74420159840804 -1.885419680193499 -1.369055443334729  2.04568446918419 -1.378182223608766 -1.176417663025535  -0.8789383723860082 -2.046079735306232 -4.162474893871985  -1.291905176686156 -1.624576341691307 -4.44240456120809  -0.6014076950017374 -2.737367527144631 -2.754977891300328  -0.4914997255825053 -2.60754089550526 -3.313330298041313  0.04555112613934351 -2.55608411070008 -3.455554628421579  -0.3828679735604545 -2.374193784268169 -3.806169875465929  -0.6351146435761565 -2.824279114013287 -2.141490787379018  -0.09127252480439832 -2.860362762708396 -2.357355024012725  -1.099659519847658 -2.676766696417491 -2.089876834607075  -0.5886676435086796 -2.795417679689666 -1.681341059148746  -1.512485841771427 -2.394980779392242 -1.799531719018761  0.4088052771379865 -2.819296390264727 -2.036540446018965  0.4350247338785641 -2.758104429759236 -2.657876002983767  0.8753457750613407 -2.567628411896567 -2.810974130603915  0.3863419395168684 -2.635114796547742 -3.132314193216133  0.4853060672947653 -2.365587837388923 -3.600575629312112  -0.8598887146229128 -2.470679362401856 -1.270836495142675  -1.278616080425262 -2.314675692256591 -1.37980723854848  1.665570539736264 -2.091991551040408 -2.43751235834088  1.265690684923795 -2.380667984709572 -2.658277055905533  1.326256940801808 -2.395681862760796 -2.116015179423935  0.956307006903931 -2.597522604341462 -1.78925515165591  1.355704419205419 -2.30377295143775 -1.569291628482215  1.209922368141801 -2.258044942902639 -3.129244301389884  0.9617573679006099 -2.138294786759008 -3.610695272027787  -0.01923219064805052 0.7574705104920021 -6.312177611077909  -0.7768742907691976 -0.2943039778281896 -6.391175856127409  0.7637448597711887 -0.2505318342571008 -6.353694201692018  0.4456089320347467 -0.9361359469067145 -6.081256145183207  -0.3500599674723145 -0.8306035482883601 -6.425124114187408  -0.7613900696075726 0.3831549563749743 -6.207349722445079  -0.05534876594038646 -0.101892432615984 -6.812967366122137  0.8221797010651506 0.5908549297510062 -6.171663332532866  1.015026427464602 0.7650089645205417 -5.80197791615474  1.181088429671412 0.2576378132023691 -5.828430259224384  1.097656500233975 -0.1765061364147815 -5.887707766622487  0.8358358939816392 -0.6601741211568849 -5.930091299609763  0.8586747962946584 0.1760408888260005 -6.315736866537297  -1.043101414887317 0.295629193189547 -5.965897291921118  -0.7621442279347979 0.7438836499232102 -5.935548297490214  -0.963999549567263 -0.5902099676873697 -6.058235253009538  -1.057771458548492 -0.04831846831257616 -6.06187339319812  -0.7990472565974456 0.05415096312914629 -6.329601318236609  0.5598008171348944 1.034158121708062 -5.885608489571066  -0.3877495017176927 0.9396071744219073 -5.992789624808799  0.1179639829999049 1.089218017056655 -5.935220422459655  0.4228629479108681 0.738204317608848 -6.302532842112867  -0.4138840915802348 0.6046503112357079 -6.30075520228019  -0.2662113008905771 -1.153158821493155 -6.017874453772099  -0.7430767032854702 -0.8729204680275994 -6.075055835258602  -0.6016700203072172 -0.5890079881533004 -6.453876254242624  0.6412205129856735 -0.9812020335380569 -5.771673729222519  0.1529725760999916 -1.211967996674905 -5.845623276729818  0.06489695693361652 -0.9575244006870115 -6.307532780842783  0.6386803464038121 -0.6203267691288848 -6.245463318799992  -0.05514736048913595 0.3727057517767754 -6.630783130376358  0.4260029828159668 -0.2045866100732379 -6.692867988655131  0.4950368834686373 0.3892311251952701 -6.563973567295855  -0.4459502017223127 0.1682980912921674 -6.569265491955452  -0.2287653861955608 -0.5064719543409505 -6.707134037189046  -0.4538404899880866 -0.1955794424876169 -6.661487588794627  0.2681749704185823 -0.6215556082339488 -6.575880058798979  1.336728635376953 1.943324512619725 0  0.08677881091788442 2.163213618081707 0  2.41134215494297 0.821303750313443 0  -2.127826515119681 0.1868901888194939 0  -1.417006179819339 1.469430729653273 0  2.118689970259154 1.520891607330773 0  2.203029571215211 0.4172404129630432 0  1.986354947880528 0.9196973648501029 0  2.554097532548833 -0.489636239663686 0  2.650075890487346 0.1196882515211937 0  2.858388474215105 0.5237515888715938 0  2.432243908895251 -1.034864098785638 0  -1.733864658179672 0.4030014964303519 0  -1.859076338737135 -0.132314727897066 0  -2.116358473869306 -0.9568819091951712 0  -2.23413644513766 -0.3745821302009777 0  -1.916729690700075 -1.477009420186454 0  -2.502886621520205 -0.05537721348441785 0  -1.061269656200234 -2.249349057279877 0  -1.580902886455134 -1.964529661007862 0  0.0539589030443767 -2.554337646792512 0  -0.5600243913934477 -2.492458788996867 0  0.03130871384056334 2.576865099771824 0  0.6243018113447095 2.555826887419274 0  1.249276723574244 2.445882334688283 0  1.799604783378727 2.169294694255931 0  0.7117537231474188 2.053269065350716 0  -0.9707018628416137 1.407858252899737 0  -1.378454490529501 1.044271766847242 0  -2.41547844204171 0.5322512002291074 0  -2.021516585101701 0.7483625078399655 0  -2.06006827439154 1.173521470645997 0  0.328199980698146 1.819996701782974 0  -0.2188093674730018 1.754749697113954 0  -0.5336846345027381 2.391485479692227 0  -0.8392728128936243 1.983021558724474 0  -1.28557712987135 2.04459403547801 0  1.449048188097519 1.480707746003244 0  0.9531748929276805 1.710052149051983 0  1.84002885553862 1.269491293358768 0  1.727709302818053 1.732108059975249 0  2.265016062601062 1.171097678822108 0  -1.757635902977456 1.683862592892 0  2.190585450819827 1.958078241611455 0  2.570110179518206 1.473682762886286 0  2.716436271860114 1.123888834377621 0  2.108565012518429 -1.56013111270282 0  1.694448494401029 -1.936642524173871 0  1.202648994571179 -2.309932682564988 0  0.609636288218399 -2.480491314564108 0  1.604651435982129 2.066485504469004 -0.9639586431318972  2.029899010735199 1.403436113059658 -0.6130110295907305  1.93163911771942 2.076869357058938 -0.4386041467448895  1.658298305552816 1.563884021449352 -0.4819783085847253  1.471286857809834 2.425448899902277 -0.4448260616537096  1.216451245484896 1.779553750310535 -0.3917970859814401  0.3887626867068617 2.356053337926479 -0.9654627256051344  1.040066584580564 2.218658243347478 -1.005518225408074  0.7925726158946603 2.451700258441897 -1.427022315961568  -0.2235685330836276 2.158924924641027 -1.008498490153668  -0.8778385056549173 2.106856193283453 -1.41977894492864  -0.7713211384453849 1.880763650888129 -0.8619100927062642  0.9412242840446322 2.49646914202674 -0.471589905686794  -0.45083424172057 2.231215344106238 -0.4104847442303554  -1.271529772648533 1.831324130996199 -0.9437866573872719  -1.085269170731518 2.026643001864073 -0.4159284986975275  2.111048167321706 1.787230460505111 -1.171893942044939  1.320712802647631 2.212212289944025 -1.603367747632909  -1.77128770549305 0.8863410057485699 -0.3287082680819584  -2.153731269539296 0.597059757128572 -0.4043147444016973  -1.941336952713589 0.8199413802272013 -0.8470120150587999  -1.899256287894041 0.1895669805461587 -0.4404215164499888  -1.852933245060306 1.136401167034263 -1.414729431084882  -1.712560991299341 1.368229603355312 -1.995025447924236  -1.598270802563074 1.330114737959341 -0.9412939156258535  -1.452154514905717 1.635523154157037 -1.431511381609009  0.148497190304761 2.379804548881833 -2.780334757928508  -0.1798921343034174 2.241093030364061 -2.380238167383551  -0.6115537155263779 2.109365373820635 -2.579245813805023  -0.3506868098710895 2.092109127260164 -3.011990050511751  1.822253772337058 1.962566657681882 -1.639017101042667  -0.3368034538130054 2.390961001027136 -1.727950405386064  0.1923728991032456 2.443254402934809 -1.530094321938204  0.6059509133118433 1.964704272598366 -0.4933470557631816  0.4297221924087842 2.541998382406834 -0.4118201468709314  -2.398329273133131 0.3464724604637861 -1.875514922374393  -2.541042922621823 0.1737097700472432 -2.636907747778624  -2.601596797340829 -0.1374647233775827 -2.048406601635639  2.46452251443479 1.315322092536206 -0.9002036212850557  2.302689572133246 1.776725580689639 -0.6141507637754202  0.09173522554432349 1.906095318592259 -0.4456092041724003  -2.224665856258424 0.2803736048703731 -0.8965002769921452  -2.461273626280569 0.2245539819886038 -0.4148378519118754  -2.09647506780123 0.9465715244936196 -1.951604757221382  -2.225270106062165 0.6309380631846325 -1.389108740103024  1.924169840354676 1.988681586198276 -2.221513575113065  1.484408593726787 2.189598550508152 -2.169303343162357  -2.115633590235747 -0.1738266254706603 -0.4465341785899601  -2.376725893649462 -0.319743644815956 -0.8804317424998711  -2.349874100195888 -0.6676705964603677 -0.4569871784510647  0.8778574600848215 2.360848364771733 -2.011838019043689  0.6626514734574096 2.255149623293106 -2.597135147814702  0.5196330329336254 2.236558011361492 -3.13672353143144  1.147398718929234 2.163715893229507 -3.119185995710084  1.176621531689932 2.176964480216581 -2.595137679412766  -2.271417836779679 0.620982133899269 -2.34137175384271  -0.902308571232643 1.919158522460825 -2.97589890239372  -1.23507139558561 1.822404496744133 -1.906460555018483  -1.499338840325101 1.644868435763849 -2.38604950271463  -1.822562190684502 1.234749492189233 -2.705368065736203  -1.540405162534334 1.817446938059828 -0.4792255633955909  -1.201251114748983 1.424523564128179 -0.4675285835386054  -0.06961015710002932 2.310173999885766 -3.763548494526267  0.01666685153193554 2.356056184391133 -3.291890213772771  -0.6736498077984211 2.047004483244858 -3.48601551204085  2.611346207032245 -0.7819101849343778 -0.5111977766659767  2.924789191924231 -0.3204893591752699 -1.033572279423143  2.647029737719562 -0.1801957514177617 -0.4674142681255557  -0.8154189799194566 2.275149426597712 -1.991425099452093  2.804946517389219 -0.8490528301521248 -1.154015522921522  -2.386949139483908 0.00649551110661729 -1.365692072613888  1.631361741696218 2.005347879476274 -2.812444938375281  2.251745520039581 0.9558478556521535 -0.4280875952294722  0.2842513165430907 2.378259353628398 -2.175476250934869  -2.617832661816796 -1.100615577306639 -3.064880888218271  -2.636143342975187 -1.371768868832202 -2.517601126283959  -2.446765911563639 -1.769862692306054 -2.985441434556331  -1.088986107548041 1.994690336525634 -2.430252776362319  0.4216048391696092 2.221860141478201 -3.648519150614235  -2.637763399393233 0.001811870767178214 -3.208015760090559  -2.621959489155203 -0.4619543893762278 -3.108318122637264  -2.156859793038872 0.7604956858169436 -2.848808941802609  -1.893772916547602 1.389307061763422 -0.4590875835148536  -1.493856977210321 1.024891801923397 -0.5215806538297683  -2.699344800986776 -0.5799783180649601 -2.528605731228889  -2.40855883585635 -0.9413968992113239 -1.080073965294878  -2.537587023158157 -1.395231261686551 -1.399982067591295  -2.239020695085968 -1.490162239869462 -0.9410649663599314  -2.647355468375428 -0.9457481102555172 -1.695151726253178  -2.649111505367549 -1.464813103790489 -1.927567150492105  -2.882381827208333 -1.09491658161439 -2.129872779985306  -2.532668835372069 -0.8710146248229758 -3.677016142487466  -2.457653419318358 -1.506219881371098 -3.60667151642531  1.49405420029194 1.401280452002328 -5.300133161320533  0.9037074329838476 1.765839920351428 -5.463687057720919  0.5547016423882947 1.570475431332166 -5.911911164762873  1.133346997983107 1.332128901221786 -5.870235107336904  2.482336299510703 -1.326564968761583 -0.5213006807800044  2.657082671629663 -1.381643580644666 -1.126164650716002  2.844676276578867 0.7672471826885446 -0.5127073857179235  2.888177496813652 0.2670635946743737 -0.9087633594158557  2.475361802702498 0.3782559349284993 -0.4375555665379814  2.603745522371712 0.7915540697605218 -1.005572498206375  2.993482752301432 -0.5739494732057662 -1.602728724516836  2.386288638769297 -1.782638015786957 -0.772718069190351  -2.546075587665737 -0.4747934794627898 -1.524451458796626  -2.795690186393691 -0.6031592317987265 -2.024166196552291  0.3745589119053951 2.262583636759387 -4.200445340490027  -0.07983712558275849 2.202620357129996 -4.534159791228577  0.5881307578390109 2.131265688303274 -4.854086530014199  -0.809237752450223 1.625969931376878 -5.64529493445843  -0.6361363911541902 1.925350057060116 -5.045329546411957  -1.206256190849155 1.628682597336968 -5.183671637728297  -2.471817737095322 -0.2169341411500046 -3.760499090872051  -2.34875107119622 0.3539385068847394 -3.226381764538581  -1.797194307416292 1.308782720709011 -4.259601411762009  -1.941914466611692 1.093686261593647 -3.769378571630132  -1.485518850330636 1.676456950534524 -3.969990183449001  -2.28330678230047 -1.96148643620264 -1.348067670783333  -2.502235507539582 -1.934626200058334 -1.789375911307786  -2.449480047573325 -0.9003975272345782 -4.335441587341685  -2.129777409944534 -1.407172949787672 -4.46256037614234  -1.96992261859751 -1.954974411478109 -0.9371875687005163  -1.776477444866165 -1.714846240582882 -0.4572011760947885  2.909424269811585 0.7219698303837734 -1.445150514420376  2.54489927437725 1.279129783270397 -1.475766797218445  1.924223493338133 -1.800466473368148 -0.4149461796799748  -2.482126645143656 -1.320827677723429 -4.063108430574723  -1.769503032768457 0.4360743605376544 -5.648060078833495  -2.177119967258316 0.1875392188973108 -5.198056945860404  -1.925195197515067 0.7286546128959679 -5.196372581237473  -1.322890500192728 1.801341259019995 -3.486454284834875  -1.68688993597334 1.367442491761154 -3.377373555042487  -2.02598833023016 0.9817429179259073 -4.697689186298631  -2.278240345674307 0.4204834822242202 -4.639291456699844  2.293979498555338 0.2238961701684442 -4.581779335339909  2.132947070422642 0.663053856136864 -4.842296651952147  2.287945442150941 0.7619240742297032 -4.289098196065879  -2.418271850724145 -0.3208030827652698 -4.66800151300766  -2.297422101060089 0.1396080699814984 -4.143107064089733  -2.217936992583894 -1.978588751610422 -3.506612377808375  1.246730817238407 1.780542411710958 -4.913727731588228  1.88139736883337 1.228413457496169 -4.682430473111625  1.541131647070528 1.732163014648976 -4.345552655461372  -1.438135269368844 1.700799943614584 -2.956902799033901  2.259576761532457 1.696024179598464 -1.91688136301157  2.585378459111071 1.318825538982193 -1.994570769947981  0.838674973388396 2.077322257846724 -3.478311449557065  1.592172201850817 -2.268570731706057 -0.4911110712840002  1.580906324946955 -2.525297243807116 -1.024477560610653  1.186182944872719 -2.922638305841575 -1.027595713175523  1.117791846332586 -2.589462439270973 -0.5595781756711665  -1.680549415520611 1.280778415401933 -5.101733793587655  2.012018990253837 -2.408943967146005 -1.516619642103937  2.054489381235702 -2.185082919125298 -0.9441359257950475  2.46572083518239 -1.878883675848041 -1.330160501411989  1.245014122733672 1.987450835979999 -3.80401875024668  1.588558662053474 1.643366951917395 -3.763808251825681  2.940672047834966 0.9460866915571758 -1.971136319348873  3.057474808877669 0.3855905018189232 -1.892598511339361  3.08826857063621 -0.2399740449127798 -2.003282086824575  3.032250278288633 0.06645851414084601 -1.460591510713536  0.3249242400011676 1.917191374457772 -5.485241807622092  0.8230825288871588 2.120122601755771 -3.97962622606597  0.8962562244742822 -1.308581769534744 -6.136285750950844  1.149947639207964 -1.383134491216675 -5.723153808241201  0.7049304883883603 -1.545050677670155 -5.683425505873481  -0.4812362085473437 2.175187025402802 -4.036787853734988  -2.102850321326343 -1.191348801803123 -0.4565992531190897  0.2522624803306981 -1.765693463919231 -5.64371472156893  1.977339427819255 1.313475429419827 -3.978407458402324  0.03884722580166415 2.060138420786237 -5.062820494562014  -1.818919343066029 -2.153022415710892 -3.925551078093208  -1.862124773388093 -2.371833682536238 -3.444593080241377  -1.370102551680847 -2.558884051855656 -3.751189627433883  -2.1748743882493 -1.717464164004975 -4.020849900762189  -1.391871638269177 1.151047110578661 -5.654969069479154  -1.557337643612803 -2.216623449659011 -0.5307716610818128  -1.861008910416781 -0.2169611308021907 -5.721026802372936  -2.141830320406329 -0.3429465190795274 -5.241232907012197  -1.254131540479707 -2.609084458368368 -0.9029191729450124  -0.9499426981291921 -2.415394086789423 -0.4486630450637283  -1.669249193915931 -2.394268736876637 -1.032431336376357  -2.136165666207834 0.7653233112485025 -4.191631840940189  -0.5086899246750183 -1.558807011705302 -6.127009875707186  -0.9877852311457564 -1.334217264653982 -6.153839898479873  -1.308547674185475 -1.382392141225117 -5.712387474927111  -0.8374817407694511 -1.700067403380915 -5.675639610682946  -1.324114776658295 1.685858191101642 -4.599092427102469  2.746860387242313 -1.399672265815583 -1.747996872929829  -2.326346822695978 -2.540759692910579 -2.174987962471389  -2.273480024498511 -2.387084405780023 -2.633881312688017  -1.953469452298792 -2.826140309402832 -2.485200801899266  -2.00584829135824 0.9396101149281645 -3.23018014266858  -1.484754720686605 -2.778972335491818 -3.312834416729222  -2.270092526998562 -2.261318904825155 -3.127646373712241  -1.908182598371473 -2.561684114840028 -2.952680919135235  -1.991268679012902 -1.202731278287488 -4.930416098476894  -1.497425354103225 -2.921233023737263 -2.776067695887592  -0.9629149207491259 1.946929534719921 -3.974775715021833  -1.921466860511289 -2.807942357241546 -1.940268548017076  -2.238706612393041 0.5229736501225423 -3.682535441362039  0.4049099457821257 -1.410032766089363 -6.230432395283376  -2.507295354610955 -1.932704034451865 -2.391875248020248  2.105434382804335 1.69871151476471 -2.618973730836774  -0.008058328433964295 -1.593777773342427 -6.089582301655847  -1.157563876395907 -1.755399372576606 -5.240496234976129  0.9866961304237782 2.041964309532625 -4.459155450481408  -1.951537696796327 -0.8519256771924617 -5.336373520256283  1.052983942835914 -3.025075141536444 -1.530149373009431  1.535514525347267 -2.81273347195741 -1.808541232988961  -0.2586117268465762 1.876378432835654 -5.523871565097394  1.956804617533543 0.3592802750220677 -5.40642898954444  1.81628252467001 0.8488478035176222 -5.278454490146171  2.503358508845593 1.459919299639922 -2.428012508765877  -0.439234957900167 -3.108278134861614 -3.213977865669818  -0.4418292146305514 -3.205561699136891 -2.643968395333195  -0.9637534437447732 -3.153699030782139 -2.408444974329835  -0.9550664193763231 -3.057132297321478 -3.033284621647602  0.2312147455016371 0.6453545485165031 -6.940387515885949  0.2366836333857151 1.092909838433513 -6.66280937583343  -1.469064261096835 -3.007136679808901 -2.180966350984101  0.7197005628769887 -0.6351147412426954 -6.773019329804706  0.6288048755924465 -1.046981612035638 -6.52218419417183  -0.4558275688495857 -3.296483427225376 -2.037355508459936  -2.178926600716266 -2.445423494927814 -1.62767711121805  -1.42219256338181 -3.035539145552109 -1.649505611485921  -1.831231175735619 -2.828186763604985 -1.54887567105432  2.010985868171083 -2.350352697852158 -2.135003764503943  2.368063082025127 -1.970070449746693 -1.870523896019097  2.385216785032451 0.7758247289779754 -3.713899285371259  -1.470191744830668 -2.751337319249937 -1.292332895768417  2.946228303745321 -0.8760731807571442 -2.14532611608109  1.959980259413652 1.62445536719111 -3.167559738471709  1.54508916933068 1.909616740230155 -3.380683094574144  -0.7390846369515442 2.034670713598365 -4.484138936873142  1.745354339633739 -2.581801224027143 -2.482755491965489  1.749794686302593 -2.411650461903579 -3.01113521945216  1.338577583229573 -2.792871624800308 -2.652210880728444  2.208706276971576 -0.2182678853373883 -4.789415897204711  1.966368400947115 -0.2238782688777068 -5.325402356937378  2.039883783795817 -0.6929197331340018 -4.927511535913083  -0.3223661861451332 -1.90828917007119 -5.663764230126155  -0.9571246690569346 -3.191926962488504 -1.855105164684952  -1.563325876680165 0.08098432429202157 -6.117594563003753  2.230620421727211 -1.609859533137436 -3.456686849875672  2.275612383819022 -1.157456940677231 -3.886072011395389  -1.678149027976716 -0.8739703568385583 -5.765329371338556  -1.506159614617572 -0.535147781287857 -6.164932200376843  0.05614244273569227 -3.259313613571929 -2.346660313552972  0.07820188636641433 -3.16068914655919 -2.900740149288479  0.7076427534938239 -0.03021485184415576 -6.944033641471989  0.9760720714893634 0.5101985092922735 -6.663543814662572  -0.9577938782034233 -0.940987655581297 -6.526162867355279  -0.6633233458791722 -0.7372657935627465 -6.870435991762715  -1.204114422831345 -0.5778707508931316 -6.550563933889542  -0.9093088302823702 -0.2644616851577616 -6.833659006589963  0.09439306697772151 -3.412981991975689 -1.882294035948453  0.4967972987563581 -3.312535614622342 -2.166696345670437  0.5658085733669287 -3.184702856481869 -2.580288681575779  1.602613421284153 1.05299608612124 -5.73674315951093  1.346507260870498 0.9135190919786166 -6.187789674089855  0.7917097327726857 1.149234177566744 -6.33709237228128  1.607653431199491 0.5870350897515788 -5.777811642859156  1.000911846115659 -3.069956446190471 -2.194058477437724  0.5311419010034396 -3.050020123409633 -3.132125146921511  1.165983149955525 -1.573426597222456 -5.121295613799073  0.6118345067648976 -1.845284608902382 -5.130513480446476  -1.772150810988448 -2.463621352826917 -1.406123942480246  -2.286503356321577 -0.8515403977427832 -4.884702639093437  2.451108627068388 -1.807618278524501 -2.360573916901898  2.037556854770664 0.1778335540983258 -4.986093564184891  1.598650014440823 -2.19597737676827 -3.555061233975358  0.2685603221720831 -1.039483443479597 -6.785368185954167  0.1933935194847404 -0.5173328363695915 -7.081453360862326  2.415499773767071 1.279550958422239 -2.951284434660632  -1.206547182101948 0.9185133463214566 -6.072314545385813  -1.534347984458297 0.6219679922937654 -6.0066602054322  -0.1642920555057008 -0.9231872305985471 -6.871379033515054  1.436252454457187 -1.683601052573261 -4.4614583408611  1.720817289452776 0.07506191373226365 -5.801885878653284  1.976999668565507 -1.135399007276015 -4.464282163758672  0.2066619845804457 1.355077060647466 -6.309137604733774  0.07793431279531045 1.683642271373684 -5.917388364342343  -1.204477348318633 0.4414188019213683 -6.369143271188254  -0.8325664630953391 0.8518006741964591 -6.423848192249231  -0.8297759400947966 1.291497221032651 -6.116861441986508  -0.2739677424536486 -2.927828863559117 -0.8906328830695071  -0.3808089980460473 -3.186745821235862 -1.409451661075212  0.2082796975523392 -3.024562908880766 -0.9808060910025568  0.1912541046484762 -3.236127584258938 -1.454169472835412  0.1818061228582799 -2.623715751168528 -0.418545944737678  2.454243280891513 -0.1217797221010301 -4.246453599529076  -0.6151688701893286 -2.00145831403457 -5.147891504070045  2.748616479138067 0.9958097824437812 -2.549136216312849  2.535663650935554 0.7099202312792147 -3.139250541492005  2.21248212960209 1.292372374202002 -3.501921811495601  2.814376439131181 0.4211593039480597 -2.790370301379913  -0.3651214050534504 1.511314947854218 -6.018279456546328  -0.5885051312193839 -1.216605560285632 -6.567685870993893  -1.310790427300977 -1.009118427783115 -6.165203154129356  0.7760015339833108 -2.387249006733258 -0.3364970293881171  0.6092577156836256 -2.828597328221828 -0.5380626960655014  1.180352388092686 -0.3631987545798051 -6.456349428185589  2.106790331888334 -2.006013945321644 -3.137123518876427  1.738663695373276 -0.7707938222322865 -5.428200646219022  1.426627060069795 -1.164823946441238 -5.420123459075356  1.286564537991239 -0.9094740818926923 -5.857007680317011  1.609235297342253 -0.494529764547216 -5.833328219190248  1.697336852726784 -1.163284152717136 -4.97205659155006  1.398764645652079 0.339271137190126 -6.224831024394269  -1.736439108359477 -1.855871695647897 -4.409291573047376  -1.353088029750574 -2.242161007786324 -4.229830785190963  0.6413246274062531 -3.254399738915108 -1.725152061323606  2.902656871900394 -0.4698703948627793 -2.637806877509501  2.803464053309049 -0.06319771151745174 -2.84771806401694  3.001719849972601 0.07561777456161468 -2.405040339253181  -0.8634335061685272 0.3238991695943481 -6.708892123938053  -0.3742327493184074 0.7482416834159529 -6.769423470872718  -0.3482521027011226 1.166968802696533 -6.437363583045553  -0.883570973981666 -2.901666284939772 -3.578729184881742  2.735294320215709 -1.075317426124099 -2.817461006206911  2.727636191048327 -0.4412576779941791 -3.206686892264486  2.526078634519345 -1.083552830400768 -3.371722720001906  0.1422176655403488 0.08068545372439993 -7.119921331711905  0.9502080143213301 -2.992199787526927 -2.851060937474882  0.9137601981962039 -2.825816383767348 -3.31640385805148  -1.241756198485033 -0.1060231308761633 -6.488182261337773  -0.9401044839789252 -3.024029434772804 -1.337879648048059  -0.02689868957245416 -1.976280657836305 -5.213933112829217  -0.748203090522896 -2.82270455000662 -0.9075828978720306  -0.4039596004709755 0.2310214520755289 -7.03932430939577  -0.1098183898849969 -1.323994307955631 -6.527970558671628  0.6785122617024811 -3.098130881938734 -1.157685124246022  1.30569783105179 -2.636910565950817 -3.192147118856893  2.565883994063244 0.3608110692084151 -3.505874363068038  0.06911420428676039 -2.994981692131629 -3.426160392174305  -0.3762865579103626 -2.812384490677389 -3.760096488781759  -0.8516053294985382 -2.569216815657412 -4.072820297002056  -0.3970168204584877 -2.565355288067352 -0.420217113922968  2.82450058744542 0.1455195078481173 -3.229774681126045  2.293510381268895 -0.5714785402447226 -4.373981603265729  1.009029070384479 -0.9183921844719708 -6.304263808565928  -2.071621848438168 -2.286257974441995 -1.19804852873376  -1.637748621798981 -1.374970005137191 -5.321699168306188  -0.4001139362862267 -0.315525911154767 -7.150467545916868  0.3607601354172688 -2.092408407617493 -4.743075871932385  -0.1711394922857343 -2.208542326645446 -4.701500101875286  2.105243886250655 -2.158018249852223 -2.652794021661132  2.895635625453487 0.6268978330322624 -2.317373490793037  0.2242110454161215 -2.348519740935001 -4.317200564340543  0.7423798669700582 -2.154883460873866 -4.318216881152051  2.476677684003346 -1.626307259128932 -2.884830105756061  -0.6736398469067379 -2.21467412472891 -4.591463406520679  -1.200473276998649 -1.967738970703991 -4.771586208546605  -0.3204464048486986 -2.467795411851215 -4.219721351903448  2.742027550892732 -1.365110152740277 -2.35078292913283  0.1542608715721025 -2.662175890888707 -3.882759657043573  2.635920563963046 -0.06643260813318676 -3.717991939589771  2.456306218212433 0.2887882714099578 -4.033178230500427  1.116953490492288 -2.45008998275093 -3.666692195340161  2.497056039015833 -0.5936845228116598 -3.802371913715013  0.5776736719633918 -2.753095254836444 -3.603337595249562  0.7048738333131772 -2.408372152384651 -4.002124888520159  -1.662359437419949 -1.599216257640782 -4.873492986527162  -1.672719167363347 0.519640384385164 -0.2475975056551829  -2.564127538148158 -0.2139029208008797 -0.3612515621728303  -0.7207601732871758 1.625754652103722 -0.3147971554950788  -0.2639179947212802 1.643414171983675 -0.2414063565628124  2.510139221220665 1.559541509905413 -0.3326152496849903  0.7535617511805834 1.706818943691784 -0.243054331177013  2.99839432919012 0.2474285754045134 -0.3600391522886711  -2.182504301286462 1.021001808924054 -0.3150273202744096  2.326184221069848 -0.5690482272296271 -0.2094900544056968  -1.937251598672481 -0.5733676702431513 -0.2704571939433116  1.995215789735085 -1.360125431755817 -0.2805541532318795  -0.170166659707947 2.718088095704694 -0.2566070357647499  2.133485329153575 0.6054563087226649 -0.2353809281074053  1.417507916364309 -1.951068673004029 -0.2238300615580308  2.758316783028316 1.24301585253075 -0.3852146828164478  0.4099605050280067 1.68323433103227 -0.2687573327926045  1.522696999348731 1.312470098869117 -0.2145632110163279  -1.220525755064427 -1.952576431543807 -0.3360564639376329  1.142985285198167 -2.16174017210901 -0.3329284197410842  2.206137907061476 -1.040324658397451 -0.2041540996763986  0.1448850909352709 2.767172782070555 -0.2275964651899343  1.865493265187996 0.9030546581178808 -0.183459579233668  2.432991046425238 1.984282679624726 -0.310603651467039  -1.796009048570891 -0.2157523772080532 -0.2842304585441879  -0.01137872361801713 2.522840940258209 -0.5422092263408881  </DataArray>
</Points>
<Cells>
<DataArray  type="UInt32"  Name="connectivity"  format="ascii">878 879 880 894  132 202 878 881  793 822 823 1129  833 879 880 881  878 879 880 881  202 878 879 881  776 1103 1105 1146  123 124 848 1169  547 878 880 882  828 880 882 883  132 878 881 883  833 868 880 881  878 880 882 883  828 868 880 883  868 880 881 883  878 880 881 883  131 201 219 884  201 220 884 885  219 220 884 886  400 970 1005 1053  111 848 1169 1217  201 219 220 884  124 848 1169 1217  871 917 1247 1265  132 201 220 885  219 884 886 910  99 871 1247 1265  84 299 885 886  220 884 885 886  833 871 917 1247  299 884 885 886  40 156 1259 1264  131 198 221 887  277 887 888 889  134 221 223 888  143 198 223 889  198 221 887 889  221 887 888 889  198 221 223 889  221 223 888 889  828 882 883 890  132 201 885 911  299 884 890 912  556 882 885 890  882 883 885 890  884 885 890 911  84 299 885 890  299 884 885 890  36 861 863 1245  277 887 889 891  131 196 198 887  143 194 198 889  36 194 196 1245  196 887 889 891  194 196 198 889  196 198 887 889  277 342 888 889  272 342 888 892  0 834 979 1255  143 223 889 892  342 888 889 892  0 837 945 979  223 888 889 892  37 860 918 1258  277 341 342 889  73 337 341 893  272 337 342 892  889 892 893 939  341 342 889 893  337 341 342 893  342 889 892 893  337 342 892 893  132 202 225 878  148 202 209 879  209 225 894 908  879 880 894 917  202 878 879 894  202 225 878 894  202 209 225 894  202 209 879 894  220 225 885 895  133 220 886 895  84 576 885 886  37 38 860 1258  860 911 918 1258  220 885 886 895  841 925 1252 1266  576 885 886 895  896 897 898 1250  34 165 896 1243  831 840 897 899  144 165 898 899  165 896 897 898  165 896 897 1243  165 897 898 899  165 897 899 1243  249 339 900 902  145 234 900 901  361 363 901 903  143 234 902 903  249 339 361 900  361 900 901 903  234 900 901 903  234 900 902 903  273 395 904 905  135 904 905 907  134 226 905 906  283 395 906 907  395 904 905 907  135 227 904 905  395 905 906 907  226 905 906 907  133 220 224 895  132 220 225 885  147 224 225 908  3 841 1252 1266  841 899 925 1266  220 224 225 895  33 841 899 1266  224 225 895 908  255 386 909 910  277 887 888 909  134 221 888 909  219 221 887 910  386 887 909 910  277 386 887 909  221 887 909 910  221 887 888 909  829 854 911 912  828 854 883 890  883 885 890 911  285 299 884 912  854 890 911 912  854 883 890 911  884 890 911 912  132 883 885 911  263 361 363 901  272 339 892 903  339 361 900 903  143 892 902 903  272 888 892 903  339 892 902 903  339 900 902 903  339 361 363 903  262 369 417 913  280 369 407 915  722 970 1005 1053  188 913 914 915  369 913 914 915  369 417 913 914  369 407 417 914  369 407 914 915  579 597 878 894  147 209 225 908  132 225 878 885  537 579 895 908  133 219 886 910  258 969 970 1005  131 219 221 887  3 33 841 1266  722 969 970 1005  597 878 880 894  833 879 880 917  533 894 916 917  111 848 849 1217  124 848 849 1217  879 894 916 917  533 597 894 917  225 878 885 895  84 556 576 885  547 556 579 878  537 576 579 895  576 878 885 895  556 576 878 885  576 579 878 895  556 576 579 878  201 884 885 911  131 201 884 918  829 911 912 918  71 72 870 938  71 870 938 960  201 884 911 918  874 975 1253 1262  884 911 912 918  144 898 899 919  831 897 899 920  335 336 897 898  251 331 919 920  897 899 919 920  251 331 336 919  336 897 898 919  897 898 899 919  262 913 921 922  145 207 247 921  144 185 247 922  151 185 207 913  207 913 921 922  207 247 921 922  185 207 913 922  185 207 247 922  520 578 923 924  147 908 923 924  537 908 923 924  82 573 577 924  520 923 924 949  537 624 908 923  573 577 578 924  537 577 578 924  24 925 926 927  831 845 920 925  251 332 920 926  67 328 927 1244  925 926 927 1244  920 925 926 1244  328 926 927 1244  332 920 926 1244  194 196 889 1245  518 563 615 1143  277 341 889 891  889 893 939 1245  889 891 893 1245  780 1143 1204 1240  196 889 891 1245  341 889 891 893  131 219 884 887  134 221 222 909  802 817 1185 1220  133 219 222 910  219 221 222 910  221 222 909 910  802 1181 1185 1220  788 1028 1087 1088  133 886 895 928  83 84 576 886  537 576 577 895  82 83 577 928  83 886 895 928  83 576 886 895  83 577 895 928  83 576 577 895  80 81 930 931  81 82 929 932  135 228 929 930  140 228 931 932  81 929 931 932  228 929 931 932  228 929 930 931  81 929 930 931  128 188 914 933  262 417 913 933  284 407 417 914  187 188 914 915  640 1028 1087 1088  213 985 987 1085  417 913 914 933  188 913 914 933  831 840 857 897  34 858 896 1243  249 335 336 898  69 857 858 897  840 857 858 897  858 896 897 1243  69 335 897 1250  335 897 898 1250  138 231 232 934  134 226 231 906  135 226 232 907  283 906 907 934  231 232 906 934  226 231 232 906  232 906 907 934  226 232 906 907  134 231 233 935  138 205 231 936  145 205 233 901  263 901 935 936  231 233 935 936  205 231 233 936  233 901 935 936  205 233 901 936  285 297 299 912  78 985 987 1085  828 852 882 890  84 85 299 890  85 297 299 890  7 85 297 890  84 556 885 890  7 85 882 890  147 224 908 924  133 224 895 928  537 577 895 924  82 577 924 928  24 163 925 926  831 899 920 925  144 163 899 919  251 919 920 926  919 920 925 926  163 919 925 926  163 899 919 925  899 919 920 925  285 299 353 884  133 219 220 886  255 351 353 910  84 299 351 886  299 351 884 886  299 351 353 884  351 353 884 910  351 884 886 910  262 359 921 922  145 247 900 921  249 898 900 922  144 247 898 922  359 900 921 922  247 900 921 922  247 898 900 922  249 359 900 922  120 874 1253 1262  205 206 901 937  138 205 936 937  263 415 901 936  696 975 1253 1262  213 985 986 987  415 901 936 937  205 901 936 937  135 904 929 930  273 347 348 904  81 82 348 929  80 81 347 930  347 904 929 930  347 348 904 929  81 347 929 930  81 347 348 929  272 337 892 938  72 73 337 893  832 893 938 939  143 194 889 939  337 892 893 938  72 337 893 938  892 893 938 939  832 855 893 939  257 394 940 941  239 240 940 942  135 240 907 941  283 394 907 942  394 940 941 942  240 940 941 942  394 907 941 942  240 907 941 942  9 694 944 945  694 695 943 945  601 943 944 945  98 871 880 1265  595 917 1247 1265  694 943 944 945  99 595 1247 1265  601 602 944 945  134 888 935 946  268 420 422 946  263 363 420 935  272 422 888 903  422 888 935 946  420 422 935 946  422 888 903 935  363 420 422 935  547 597 878 880  148 209 879 916  98 99 871 1265  290 985 986 987  597 880 894 917  209 879 894 916  24 163 164 925  846 1055 1059 1260  125 126 742 1260  694 706 943 947  532 601 944 947  103 104 601 943  82 928 929 932  133 229 928 929  135 227 228 929  140 228 229 932  229 928 929 932  133 928 929 951  228 229 929 932  227 228 229 929  829 861 891 918  861 863 891 1245  24 164 925 1266  131 196 887 918  196 891 918 1246  156 867 881 1259  196 887 891 918  156 867 1259 1264  151 185 913 948  144 185 919 922  262 360 913 922  251 919 922 948  185 919 922 948  251 336 919 922  360 913 922 948  185 913 922 948  268 383 425 946  273 383 395 905  134 905 906 946  283 395 425 906  383 425 906 946  383 905 906 946  383 395 905 906  383 395 425 906  82 573 924 932  520 573 924 949  147 230 923 924  140 230 932 949  573 924 932 949  520 573 578 924  230 924 932 949  230 923 924 949  331 336 897 919  831 857 897 920  335 898 960 1250  69 331 335 897  916 950 1247 1257  148 879 916 950  879 916 917 1247  163 164 899 925  867 868 881 1259  869 950 1247 1257  164 899 925 1266  869 879 950 1247  791 821 1097 1196  547 579 597 878  533 597 666 894  537 579 666 908  629 944 981 1039  791 821 823 1097  579 666 894 908  579 597 666 894  147 224 230 924  133 224 229 928  82 924 928 932  140 229 230 932  224 229 230 924  224 229 924 928  229 230 924 932  229 924 928 932  100 595 1247 1257  916 950 977 1257  533 595 916 917  879 916 950 1247  833 869 879 1247  595 916 1247 1257  255 352 909 910  134 222 905 909  273 352 905 951  133 222 910 951  352 909 910 951  352 905 909 951  222 905 909 951  222 909 910 951  152 239 240 940  141 236 239 942  135 236 240 907  629 981 1038 1039  791 1098 1196 1197  236 239 240 942  154 950 1255 1264  236 240 907 942  260 952 953 954  28 29 720 952  27 28 719 953  667 719 720 954  719 952 953 954  28 719 952 953  28 719 720 952  719 720 952 954  265 415 416 937  262 362 416 921  206 901 921 937  263 362 415 901  415 416 921 937  362 415 416 921  362 415 901 921  415 901 921 937  135 227 904 929  273 348 904 951  133 227 929 951  82 348 928 929  138 231 936 955  134 935 946 955  268 420 946 955  263 420 935 936  231 935 936 955  134 231 935 955  420 935 936 955  420 935 946 955  257 345 940 941  135 240 930 941  152 240 940 956  80 345 930 956  345 940 941 956  240 940 941 956  240 930 941 956  345 930 941 956  41 154 1255 1264  268 385 422 946  272 342 422 888  277 342 385 888  40 41 835 1264  385 422 888 946  835 867 950 1264  342 385 422 888  10 944 981 1039  389 390 914 957  186 957 958 991  389 914 958 962  128 203 206 959  40 835 867 1264  145 206 901 921  138 203 205 937  203 206 937 959  10 981 1038 1039  203 205 206 937  215 216 217 1035  143 902 939 961  856 939 960 961  249 898 902 960  165 195 898 961  143 193 939 961  902 939 960 961  195 898 902 961  898 902 960 961  832 855 864 893  73 863 864 893  125 849 1059 1217  143 889 892 939  832 864 893 938  855 863 864 893  194 889 939 1245  124 125 849 1217  28 29 952 958  27 28 953 962  259 952 958 962  260 399 952 953  28 952 958 962  28 952 953 962  399 952 953 962  259 387 952 958  828 852 854 890  829 851 854 912  7 76 297 890  297 299 890 912  714 963 964 965  269 330 963 964  372 373 964 997  252 330 965 996  330 963 964 965  269 963 964 966  330 964 965 996  330 372 373 964  144 898 919 922  249 336 359 922  262 359 360 922  251 336 360 922  336 898 919 922  249 336 898 922  251 360 922 948  336 359 360 922  286 372 409 967  269 414 964 966  27 966 967 968  261 409 414 968  372 409 414 967  414 964 966 967  409 414 967 968  414 966 967 968  255 353 386 910  277 343 386 887  219 884 887 910  285 343 353 884  343 353 386 910  343 386 887 910  343 353 884 910  343 884 887 910  134 222 226 905  135 226 227 905  273 904 905 951  133 222 227 951  222 226 227 905  135 226 905 907  222 227 905 951  227 904 905 951  134 231 906 955  138 231 934 955  268 425 946 955  283 425 906 934  693 694 695 943  8 9 694 945  0 8 695 945  69 857 897 920  68 69 857 920  8 694 695 945  298 1254 1263 1267  75 850 1254 1263  85 556 882 890  76 850 912 1263  132 878 883 885  547 556 878 882  75 76 850 1263  298 340 1254 1267  556 878 882 885  878 882 883 885  260 398 952 954  258 398 969 970  29 720 952 969  720 954 970 1018  398 952 954 970  398 952 969 970  720 952 954 970  720 952 969 970  265 416 937 959  262 416 921 933  128 206 933 959  145 205 206 901  416 933 937 959  416 921 933 937  206 921 933 937  206 933 937 959  95 451 971 972  18 19 971 974  19 20 972 973  433 972 973 974  451 971 972 974  19 971 972 974  433 452 972 973  19 972 973 974  671 706 947 976  693 694 706 943  539 606 975 976  839 874 975 1262  839 943 975 1262  706 947 975 976  120 839 874 1262  606 947 975 976  830 950 977 979  521 977 978 980  9 155 978 979  148 155 950 980  950 977 979 980  977 978 979 980  155 950 979 980  155 978 979 980  671 704 705 947  10 11 704 981  9 10 705 944  532 944 947 981  704 705 947 981  10 704 705 981  705 944 947 981  10 705 944 981  26 27 966 967  25 714 963 965  372 414 964 967  372 964 967 997  26 964 966 967  26 963 964 966  269 372 414 964  269 330 372 964  262 359 362 921  145 900 901 921  263 361 362 901  249 359 361 900  359 361 900 921  359 361 362 921  361 362 901 921  361 900 901 921  143 195 234 902  249 898 900 902  145 234 247 900  144 195 247 898  195 898 900 902  195 247 898 900  195 234 247 900  195 234 900 902  693 706 735 975  539 975 976 982  683 735 765 982  671 706 765 976  706 735 975 976  735 975 976 982  706 735 765 976  735 765 976 982  277 385 386 909  134 888 909 946  268 384 385 946  255 384 386 909  277 385 888 909  385 888 909 946  384 385 386 909  384 385 909 946  259 387 399 952  258 387 398 969  29 952 958 969  260 398 399 952  259 399 952 962  387 952 958 969  387 398 952 969  387 398 399 952  251 333 370 948  280 370 915 983  151 915 948 983  269 333 371 983  333 370 948 983  370 915 948 983  280 915 983 984  333 370 371 983  151 183 915 983  280 371 983 984  27 183 966 984  269 371 966 983  280 370 371 983  371 966 983 984  183 966 983 984  183 915 983 984  152 940 956 985  257 344 345 940  79 80 345 956  78 79 344 985  344 940 956 985  344 345 940 956  79 344 956 985  79 344 345 956  563 614 1143 1214  152 213 214 986  136 181 214 986  130 181 213 987  780 1143 1214 1240  534 563 614 1214  181 213 214 986  181 213 986 987  831 841 845 925  24 25 163 926  3 841 843 1252  67 843 927 1244  843 925 927 1244  24 925 927 1252  841 843 845 925  839 943 1251 1262  43 988 989 990  22 160 180 988  136 180 182 989  139 160 182 990  180 988 989 990  160 180 988 990  160 180 182 990  180 182 989 990  284 389 390 914  29 186 958 991  256 957 991 992  128 186 914 992  142 192 246 994  139 192 242 993  382 993 994 995  141 242 246 995  192 246 993 994  192 242 246 993  242 246 993 995  246 993 994 995  330 373 964 996  286 372 967 997  25 26 714 963  689 714 996 997  373 964 996 997  714 964 996 997  714 964 965 996  252 330 373 996  30 722 969 998  119 839 1251 1262  722 998 999 1005  723 998 999 1147  30 722 723 998  119 120 839 1262  722 723 998 999  876 1029 1179 1261  83 84 351 886  133 886 910 928  255 350 351 910  82 83 350 928  83 350 886 928  83 350 351 886  350 351 886 910  350 886 910 928  25 717 965 1046  325 965 1000 1001  676 1000 1001 1055  126 703 716 1001  25 703 717 1046  717 965 1000 1001  703 716 717 1001  676 717 1000 1001  828 854 866 883  38 199 1248 1258  829 854 860 911  132 199 883 911  854 883 911 1248  860 911 1248 1258  199 911 1248 1258  199 883 911 1248  215 216 1035 1048  532 601 602 944  122 734 1256 1261  103 602 945 1249  103 601 602 945  876 1026 1029 1261  103 601 943 945  734 1026 1256 1261  521 600 980 1002  148 168 916 980  533 600 916 1003  129 168 1002 1003  600 980 1002 1003  600 916 980 1003  168 916 980 1003  168 980 1002 1003  215 217 1021 1035  73 341 891 893  36 861 1245 1246  829 861 862 891  122 876 1179 1261  73 863 891 893  70 71 870 960  861 862 863 891  262 360 369 913  280 369 370 915  151 913 915 948  251 360 370 948  360 369 370 913  369 370 913 915  360 370 913 948  370 913 915 948  106 975 982 1004  539 604 975 982  683 735 982 1004  847 1001 1055 1260  742 744 1059 1260  106 608 982 1004  215 1021 1035 1048  735 975 982 1004  34 856 896 961  249 335 898 960  832 856 939 960  144 165 195 898  134 905 909 946  273 352 383 905  268 383 384 946  255 352 384 909  383 905 909 946  352 383 905 909  352 383 384 909  383 384 909 946  533 894 916 1003  148 168 209 916  147 209 908 1023  129 168 208 1003  209 894 916 1003  168 209 916 1003  168 208 209 1003  147 208 209 1023  9 945 978 979  102 103 602 1249  521 598 977 978  830 838 977 979  945 978 979 1249  102 598 602 1249  837 945 979 1249  598 977 978 1249  145 206 207 921  262 913 921 933  128 188 206 933  151 188 207 913  207 913 921 933  188 207 913 933  188 206 207 933  206 207 921 933  791 1098 1160 1197  256 388 957 991  192 993 1011 1061  259 388 389 958  388 389 390 957  256 388 390 957  388 389 957 958  388 957 958 991  258 969 998 1005  30 969 991 998  125 742 1059 1260  270 368 998 999  258 366 969 998  722 969 998 1005  368 998 999 1005  722 999 1005 1053  28 29 186 958  27 28 187 962  377 993 1011 1061  259 389 958 962  28 187 958 962  187 914 958 962  186 187 914 958  28 186 187 958  31 32 162 1007  2 32 161 1006  47 1006 1007 1008  139 161 162 1008  32 162 1007 1008  32 1006 1007 1008  32 161 1006 1008  32 161 162 1008  26 27 715 967  26 714 963 964  286 372 373 997  689 714 715 997  26 714 715 967  26 714 964 967  714 715 967 997  714 964 967 997  131 884 887 918  277 887 891 1267  791 812 1098 1160  285 884 912 1267  791 812 823 1097  192 993 994 1061  812 823 1097 1130  287 379 994 1061  141 246 995 1009  287 382 993 994  142 246 994 1010  266 382 1009 1010  382 995 1009 1010  246 995 1009 1010  246 994 995 1010  382 994 995 1010  9 694 705 944  693 706 943 975  671 705 706 947  125 126 846 1260  694 705 944 947  694 705 706 947  126 847 1001 1260  63 326 1001 1055  139 162 1008 1011  47 305 1007 1008  31 162 1007 1012  253 305 1011 1012  305 1008 1011 1012  162 1008 1011 1012  162 1007 1008 1012  305 1007 1008 1012  328 332 926 1244  251 332 333 926  25 926 927 963  269 328 333 963  67 328 332 1244  328 332 333 926  328 333 926 963  328 926 927 963  127 844 1001 1046  586 1013 1015 1237  586 592 593 1015  157 175 1014 1015  326 1000 1001 1055  716 1001 1055 1260  157 1013 1014 1015  586 592 1014 1015  366 991 998 1016  29 30 969 991  30 31 1016 1017  256 364 991 1017  364 366 991 1016  30 991 998 1016  364 991 1016 1017  30 991 1016 1017  264 401 970 1018  258 398 400 970  260 398 401 954  667 720 954 1018  264 400 401 970  398 400 401 970  401 954 970 1018  398 401 954 970  258 366 367 969  29 30 722 969  313 366 998 1016  256 364 367 991  366 367 969 991  366 969 991 998  364 366 367 991  803 812 823 1130  832 938 939 960  249 339 902 960  272 339 892 938  143 892 902 939  902 938 939 960  339 902 938 960  892 902 938 939  339 892 902 938  159 178 971 1020  95 589 971 1019  130 178 1019 1021  524 589 1020 1021  589 971 1019 1020  589 1019 1020 1021  178 1019 1020 1021  159 971 1020 1091  138 936 955 1022  268 420 421 955  266 418 421 1022  263 418 420 936  421 936 955 1022  420 421 936 955  418 420 421 936  418 421 936 1022  148 155 168 980  521 978 980 1002  9 155 166 978  129 166 168 1002  166 168 980 1002  155 166 168 980  155 166 978 980  166 978 980 1002  538 665 1023 1024  533 665 894 1003  208 209 1003 1023  129 208 1003 1024  665 1003 1023 1024  665 894 1003 1023  208 1003 1023 1024  209 894 1003 1023  135 232 236 907  141 235 236 942  138 232 235 934  283 907 934 942  236 907 934 942  232 236 907 934  232 235 236 934  235 236 934 942  266 418 419 1022  265 415 419 937  138 936 937 1022  263 415 418 936  418 419 937 1022  415 418 419 937  415 418 936 937  418 936 937 1022  80 930 956 1025  135 237 240 930  152 218 240 956  146 218 237 1025  237 930 956 1025  237 240 930 956  218 237 956 1025  218 237 240 956  611 612 1027 1028  108 611 1026 1029  740 1026 1027 1032  688 1027 1028 1029  611 1027 1028 1029  611 1026 1027 1029  688 740 1027 1029  740 1026 1027 1029  143 193 195 961  34 35 193 961  150 159 178 1020  94 971 1020 1091  132 200 881 883  828 865 868 883  676 716 717 1001  833 867 868 881  868 881 883 1259  896 898 960 1250  856 859 896 960  200 881 883 1259  138 934 955 1022  268 421 425 955  283 425 426 934  266 421 426 1022  421 934 955 1022  421 425 934 955  421 426 934 1022  421 425 426 934  833 871 880 917  547 557 597 880  98 557 596 880  533 596 597 917  802 817 820 1220  856 858 859 896  596 597 880 917  557 596 597 880  139 1008 1011 1030  45 46 306 1030  46 47 305 1008  253 305 306 1011  306 1008 1011 1030  46 306 1008 1030  305 306 1008 1011  46 305 306 1008  126 127 844 1001  46 1008 1030 1054  46 47 1006 1008  139 161 1008 1030  156 200 881 1259  97 98 853 880  161 1008 1030 1054  161 1006 1008 1054  522 1031 1032 1033  678 763 764 1031  683 764 765 1032  671 763 765 1033  764 1031 1032 1033  763 764 1031 1033  763 764 765 1033  764 765 1032 1033  539 976 982 1033  522 609 1032 1033  683 765 982 1032  671 765 976 1033  539 609 982 1033  609 982 1032 1033  765 976 982 1033  765 982 1032 1033  542 1021 1034 1035  146 217 1034 1035  596 880 917 1265  594 1021 1035 1048  542 1034 1035 1112  217 1021 1034 1035  156 200 202 881  98 596 880 1265  129 1002 1003 1036  533 600 632 1003  521 600 631 1002  544 631 632 1036  632 1002 1003 1036  600 632 1002 1003  631 632 1002 1036  600 631 632 1002  129 166 167 1037  9 10 166 1039  10 11 167 1038  540 1037 1038 1039  166 167 1037 1039  10 166 167 1039  167 1037 1038 1039  10 167 1038 1039  20 972 973 1040  4 452 972 1040  95 96 451 972  433 451 452 972  452 972 973 1040  4 972 987 1040  433 451 972 974  96 451 452 972  152 218 956 985  79 80 956 1025  146 218 1025 1041  78 79 985 1041  131 197 201 918  829 860 911 918  38 197 199 1258  132 199 201 911  197 201 911 918  197 911 918 1258  197 199 201 911  197 199 911 1258  269 371 414 966  280 371 405 984  27 966 968 984  261 405 414 968  371 405 414 966  371 405 966 984  405 414 966 968  405 966 968 984  256 390 392 992  265 391 392 959  284 390 391 914  128 914 959 992  391 392 959 992  391 914 959 992  390 391 914 992  390 391 392 992  828 853 868 880  547 557 880 882  97 98 557 880  833 868 871 880  828 853 880 882  97 557 880 882  853 868 871 880  156 867 879 881  117 817 1043 1044  817 1042 1044 1080  447 472 1042 1043  39 865 883 1259  39 40 865 1259  817 1042 1043 1044  865 867 868 1259  472 1042 1043 1044  257 394 396 940  278 396 397 1045  152 239 940 1045  283 394 397 942  394 396 940 1045  394 396 397 1045  394 397 942 1045  394 940 942 1045  325 326 1000 1001  703 717 1001 1046  156 202 879 881  126 127 703 1001  717 965 1001 1046  325 965 1001 1046  79 956 1025 1041  218 956 1025 1041  135 904 930 941  257 345 349 941  273 347 349 904  80 345 347 930  347 904 930 941  347 349 904 941  345 347 349 941  345 347 930 941  150 159 1020 1091  79 956 985 1041  720 722 969 970  93 1014 1020 1091  794 817 1042 1080  116 117 817 1044  115 116 818 1047  865 868 883 1259  40 865 867 1259  116 817 818 1044  854 860 911 1248  116 818 1044 1047  273 349 395 904  257 349 394 941  135 904 907 941  283 394 395 907  349 395 904 941  349 394 395 941  394 395 907 941  395 904 907 941  130 178 215 1021  137 175 215 1048  150 175 178 1020  524 1020 1021 1048  215 1020 1021 1048  178 215 1020 1021  175 178 215 1020  175 215 1020 1048  95 971 972 1019  19 20 177 972  18 19 176 971  130 176 177 1019  176 971 972 1019  19 176 971 972  19 176 177 972  176 177 972 1019  136 181 986 1049  4 289 987 1049  289 290 986 987  150 1014 1020 1091  181 986 987 1049  289 986 987 1049  38 860 1248 1258  24 925 1252 1266  132 200 202 881  40 156 200 1259  148 156 202 879  833 867 879 881  274 1050 1051 1052  672 724 746 1050  667 724 745 1051  673 745 746 1052  745 1050 1051 1052  724 745 1050 1051  724 745 746 1050  745 746 1050 1052  29 720 722 969  264 970 1018 1053  672 722 724 1053  667 720 724 1018  720 724 970 1018  720 722 724 970  722 724 970 1053  724 970 1018 1053  22 160 988 1054  43 44 988 990  45 990 1030 1054  139 160 990 1030  160 988 990 1054  44 988 990 1054  160 990 1030 1054  45 300 990 1030  832 856 859 960  125 846 1059 1260  34 856 858 896  3 24 1252 1266  252 325 326 1000  841 843 925 1252  676 716 1001 1055  126 716 1001 1260  2 32 1006 1056  47 1006 1007 1056  48 49 1056 1057  31 32 1007 1057  32 1006 1007 1056  47 465 1006 1056  32 1007 1056 1057  48 1007 1056 1057  251 333 926 948  151 184 948 983  25 184 926 963  269 333 963 983  333 926 948 983  184 926 948 983  333 926 963 983  184 926 963 983  682 744 1058 1059  279 296 1058 1060  62 294 1055 1059  676 744 1055 1060  744 1055 1058 1060  744 1055 1058 1059  294 1055 1058 1059  296 1055 1058 1060  253 377 1011 1061  139 192 993 1011  287 993 994 1061  142 192 994 1061  146 216 217 1035  137 215 216 1048  130 215 217 1021  594 628 1035 1048  434 454 1062 1063  114 115 1062 1065  113 114 1063 1064  51 454 1064 1065  454 1062 1063 1065  114 1062 1063 1065  454 1063 1064 1065  114 1063 1064 1065  182 989 1066 1113  0 836 945 1251  43 301 989 990  139 182 990 1066  35 855 939 1245  35 36 855 1245  182 989 990 1066  301 989 990 1066  133 910 928 951  273 348 352 951  255 350 352 910  82 348 350 928  350 910 928 951  350 352 910 951  348 350 352 951  348 350 928 951  522 609 636 1033  529 636 637 1067  671 976 1033 1067  539 609 637 1033  609 636 637 1033  636 637 1033 1067  539 637 976 1033  637 976 1033 1067  271 355 356 1068  248 355 357 1070  282 356 357 1069  749 1068 1069 1070  355 356 1068 1070  355 356 357 1070  356 1068 1069 1070  356 357 1069 1070  532 629 944 981  10 11 981 1038  9 10 944 1039  540 629 1038 1039  265 937 959 1071  128 191 203 959  142 191 204 1071  138 203 204 937  203 937 959 1071  191 203 959 1071  203 204 937 1071  191 203 204 1071  532 601 606 947  706 943 947 975  539 605 606 975  104 601 605 943  601 606 943 947  606 943 947 975  601 605 606 943  605 606 943 975  103 104 836 943  285 343 884 1267  0 695 945 1251  102 103 837 1249  103 836 943 945  695 943 945 1251  103 836 837 945  855 893 939 1245  673 745 748 1052  667 745 747 1051  274 1051 1052 1072  747 748 1072 1076  745 748 1052 1072  745 1051 1052 1072  745 747 1051 1072  745 747 748 1072  520 573 574 949  81 82 573 932  80 81 574 931  140 931 932 949  573 574 932 949  81 573 574 932  574 931 932 949  81 574 931 932  254 993 995 1066  287 378 382 993  139 242 993 1066  873 950 977 1257  100 101 599 1257  254 307 993 1066  101 599 977 1257  242 993 995 1066  667 721 1073 1074  689 721 749 1069  282 1069 1073 1074  747 749 1074 1076  667 721 747 1074  721 1069 1073 1074  721 749 1069 1074  721 747 749 1074  264 1018 1050 1053  274 424 1050 1051  672 724 1050 1053  667 724 1018 1051  264 423 1050 1053  424 1018 1050 1051  724 1018 1050 1051  724 1018 1050 1053  269 328 329 963  25 927 963 1046  66 67 328 927  65 66 329 1046  329 927 963 1046  66 329 927 1046  66 328 329 927  328 329 927 963  869 873 950 1257  691 700 725 1075  672 723 725 999  270 998 999 1147  869 872 1247 1257  700 723 725 1075  100 872 1247 1257  723 725 999 1075  18 159 176 971  884 912 918 1267  94 589 971 1020  130 176 178 1019  159 176 178 971  94 95 589 971  176 178 971 1019  178 971 1019 1020  261 403 409 968  27 953 967 968  286 408 409 967  260 403 408 953  403 953 967 968  403 408 953 967  403 408 409 967  403 409 967 968  248 357 1070 1076  282 357 1069 1074  749 1068 1070 1078  674 747 749 1076  357 1070 1074 1076  357 1069 1070 1074  749 1070 1074 1076  749 1069 1070 1074  141 239 942 1077  239 940 942 1045  278 397 1045 1077  218 956 985 1041  7 97 555 882  239 942 1045 1077  7 852 882 890  397 942 1045 1077  3 24 164 1266  24 25 926 927  831 841 899 925  144 163 164 899  151 184 185 948  25 163 184 926  144 163 185 919  251 919 926 948  163 184 926 948  163 919 926 948  163 185 919 948  163 184 185 948  8 9 945 979  0 834 837 979  837 838 979 1249  830 834 838 979  0 8 945 979  776 1105 1109 1146  834 837 838 979  102 837 838 1249  858 896 897 1250  252 325 965 1000  64 65 325 1046  126 844 847 1001  63 64 326 1001  64 325 326 1001  64 844 847 1001  64 325 1001 1046  248 323 355 1070  271 354 355 1068  267 323 354 1078  689 749 1068 1078  354 355 1068 1070  354 1068 1070 1078  323 354 1070 1078  323 354 355 1070  256 365 379 1079  253 365 377 1061  287 377 993 1061  142 994 1061 1079  365 379 1061 1079  365 377 379 1061  379 994 1061 1079  287 377 379 1061  430 457 474 1080  447 472 474 1042  794 817 818 1080  87 457 472 1044  457 474 1044 1080  474 1042 1044 1080  472 474 1042 1044  457 472 474 1044  136 179 181 1049  20 177 179 1040  4 987 1040 1049  130 177 181 987  177 179 181 1049  177 179 1040 1049  177 181 987 1049  177 987 1040 1049  282 411 1069 1073  260 411 954 1081  689 721 1069 1081  667 721 954 1073  411 954 1069 1073  411 954 1069 1081  721 954 1069 1073  721 954 1069 1081  520 923 949 1082  147 210 230 923  140 230 245 949  149 210 245 1082  230 923 949 1082  210 230 923 1082  210 230 245 1082  230 245 949 1082  31 1007 1016 1057  47 48 309 1007  48 49 308 1057  250 308 309 1016  309 1007 1016 1057  48 309 1007 1057  308 309 1016 1057  48 308 309 1057  430 457 1080 1083  817 818 1044 1080  115 818 1047 1083  87 457 1044 1047  457 1047 1080 1083  818 1047 1080 1083  818 1044 1047 1080  457 1044 1047 1080  253 1011 1012 1061  31 162 189 1012  139 162 192 1011  142 189 192 1061  162 1011 1012 1061  162 189 1012 1061  162 189 192 1061  162 192 1011 1061  151 183 184 983  26 27 183 966  25 26 184 963  269 963 966 983  26 183 966 983  26 963 966 983  26 184 963 983  26 183 184 983  114 115 727 1065  685 726 727 1084  113 114 726 1064  51 1064 1065 1084  726 727 1065 1084  726 1064 1065 1084  114 726 1064 1065  114 726 727 1065  139 182 242 1066  136 182 989 1113  69 858 897 1250  141 242 995 1077  182 241 242 1066  875 1004 1026 1256  242 995 1066 1077  122 875 876 1256  35 193 939 961  121 875 1004 1256  84 85 556 890  547 555 556 882  7 85 555 882  121 122 875 1256  85 555 556 882  41 834 835 1255  130 213 987 1085  276 289 290 986  152 213 985 986  78 290 985 987  31 32 700 1057  49 1056 1057 1086  2 32 701 1056  691 700 701 1086  700 701 1057 1086  32 700 701 1057  32 701 1056 1057  701 1056 1057 1086  598 602 978 1249  532 602 603 944  9 944 945 978  521 598 603 978  602 945 978 1249  602 944 945 978  602 603 944 978  598 602 603 978  257 344 346 940  152 940 985 986  276 290 346 986  78 290 344 985  346 940 985 986  290 346 985 986  290 344 346 985  344 346 940 985  676 716 744 1055  62 63 296 1055  165 193 195 961  126 716 742 1260  716 744 1055 1260  744 1055 1059 1260  716 742 744 1260  682 742 744 1059  271 356 412 1068  282 356 411 1069  260 411 412 1081  689 1068 1069 1081  356 412 1068 1069  356 411 412 1069  412 1068 1069 1081  411 412 1069 1081  536 640 1087 1088  688 788 1028 1087  612 640 1028 1088  830 835 950 1255  20 179 1040 1089  4 42 1040 1049  43 288 989 1089  136 179 989 1049  179 1040 1049 1089  42 1040 1049 1089  179 989 1049 1089  42 43 288 1089  17 18 159 1091  1 17 158 1090  93 1014 1090 1091  17 158 159 1091  17 158 1090 1091  158 1014 1090 1091  147 210 923 1023  520 625 923 1082  538 625 1023 1092  149 210 1082 1092  210 923 1023 1082  625 923 1023 1082  210 1023 1082 1092  625 1023 1082 1092  24 25 927 1046  0 41 834 1255  66 67 843 927  65 66 842 1046  24 927 1046 1252  843 925 927 1252  66 842 927 1046  66 842 843 927  675 768 1093 1094  56 57 1093 1096  57 58 1094 1095  674 768 1095 1096  768 1093 1094 1096  57 1093 1094 1096  768 1094 1095 1096  57 1094 1095 1096  129 166 1002 1037  521 978 1002 1039  9 166 978 1039  540 630 1037 1039  630 1002 1037 1039  166 1002 1037 1039  166 978 1002 1039  521 603 978 1039  830 950 979 1255  105 106 604 975  539 604 605 975  104 605 943 975  0 154 979 1255  123 848 877 1169  104 839 943 975  105 604 605 975  138 204 937 1022  142 204 1010 1071  265 419 937 1071  266 419 1010 1022  204 937 1010 1022  204 937 1010 1071  419 937 1010 1022  419 937 1010 1071  29 186 190 991  256 991 992 1079  128 186 191 992  142 190 191 1079  190 991 992 1079  190 191 992 1079  186 190 191 992  186 190 991 992  254 378 381 995  378 382 993 995  123 877 1169 1179  266 381 382 1009  378 381 382 995  122 123 877 1179  381 382 995 1009  143 195 902 961  683 740 1026 1032  546 611 612 1028  896 898 960 961  612 1027 1031 1032  856 896 960 961  249 334 339 960  272 338 339 938  832 870 938 960  71 334 338 960  334 338 339 960  71 338 938 960  338 339 938 960  884 887 918 1267  823 1097 1129 1202  343 884 887 1267  122 876 877 1179  74 850 891 1254  277 340 891 1267  74 75 850 1254  791 812 1097 1098  287 382 393 994  265 393 419 1071  142 994 1010 1071  266 382 419 1010  382 393 994 1010  393 994 1010 1071  393 419 1010 1071  382 393 419 1010  267 323 1078 1099  248 323 1070 1076  689 749 1068 1069  674 749 1076 1099  323 1070 1078 1099  323 1070 1076 1099  749 1070 1076 1099  749 1070 1078 1099  142 204 246 1010  138 204 235 1022  141 235 246 1009  266 1009 1010 1022  204 235 1010 1022  235 1009 1010 1022  235 246 1009 1010  204 235 246 1010  31 189 1012 1017  253 365 1012 1061  256 365 1017 1079  142 189 1061 1079  189 1012 1017 1061  365 1012 1017 1061  189 1017 1061 1079  365 1017 1061 1079  256 392 992 1079  265 392 959 1071  128 191 959 992  142 191 1071 1079  392 992 1071 1079  392 959 992 1071  191 992 1071 1079  191 959 992 1071  95 96 972 1019  4 96 972 987  20 177 972 1040  130 177 987 1019  96 972 987 1019  4 96 452 972  177 972 987 1019  177 972 987 1040  822 827 1100 1152  793 820 1100 1181  794 820 827 1101  165 896 898 961  34 165 896 961  820 822 827 1100  186 957 991 992  820 827 1100 1101  674 768 772 1095  58 1094 1095 1102  675 768 773 1094  680 772 773 1102  772 1094 1095 1102  772 773 1094 1102  768 772 773 1094  768 772 1094 1095  689 776 1078 1103  375 427 1103 1105  267 1078 1104 1105  776 1104 1105 1109  776 1078 1103 1105  427 1078 1103 1105  776 1078 1104 1105  267 324 1104 1105  522 634 1031 1033  535 634 1106 1107  678 1031 1106 1107  763 1033 1067 1107  634 1031 1033 1107  634 1031 1106 1107  763 1031 1033 1107  678 763 1031 1107  542 572 594 1021  285 298 343 1267  95 572 589 1019  524 589 594 1021  340 891 1254 1267  75 298 1254 1263  572 589 594 1021  572 589 1019 1021  593 1015 1108 1237  15 157 173 1013  137 173 1015 1108  150 157 175 1014  586 593 1015 1237  157 173 1013 1015  157 173 175 1015  137 1015 1048 1108  678 788 1031 1088  688 788 1027 1028  546 612 640 1028  522 612 1031 1032  788 1027 1031 1088  788 1027 1028 1088  612 1027 1031 1088  612 1027 1028 1088  279 324 375 1109  267 324 427 1105  281 375 427 1103  692 776 1104 1109  324 1104 1105 1109  324 375 1105 1109  324 375 427 1105  267 427 1078 1105  671 704 947 1067  529 660 1067 1110  11 704 981 1110  532 660 947 981  704 947 981 1067  704 981 1067 1110  660 981 1067 1110  660 947 981 1067  140 949 1111 1112  520 575 627 949  541 627 628 1111  542 575 628 1112  575 949 1111 1112  575 627 949 1111  575 628 1111 1112  575 627 628 1111  887 891 918 1267  108 607 611 1026  829 850 891 1267  522 607 612 1032  607 1026 1027 1032  607 611 1026 1027  607 612 1027 1032  607 611 612 1027  278 304 1045 1113  563 1128 1143 1214  152 214 986 1045  136 214 986 1113  304 986 1045 1113  780 1128 1143 1214  214 986 1045 1113  675 780 1128 1214  784 786 1106 1114  681 785 786 1116  679 784 785 1115  531 1114 1115 1116  785 786 1114 1116  785 1114 1115 1116  784 785 1114 1115  784 785 786 1114  91 1117 1118 1119  15 16 698 1117  1 16 697 1118  697 698 1119 1187  16 1117 1118 1119  16 698 1117 1119  16 697 698 1119  16 697 1118 1119  129 1003 1024 1036  538 654 665 1024  533 632 665 1003  544 632 654 1036  632 1003 1024 1036  632 665 1003 1024  632 654 665 1024  632 654 1024 1036  260 401 411 954  282 410 411 1073  264 401 410 1018  667 954 1018 1073  401 411 954 1073  401 410 411 1073  401 954 1018 1073  401 410 1018 1073  45 46 1030 1054  2 23 161 1006  22 23 160 1054  139 160 161 1030  46 1006 1008 1054  23 161 1006 1054  160 161 1030 1054  23 160 161 1054  672 722 723 999  264 400 970 1053  829 850 912 1267  258 400 970 1005  115 1062 1065 1120  434 454 455 1062  5 52 455 1120  51 52 454 1065  455 1062 1065 1120  454 455 1062 1065  52 454 455 1065  52 455 1065 1120  674 774 1095 1099  267 322 1099 1104  58 322 1095 1121  692 774 1104 1121  774 1099 1104 1121  774 1095 1099 1121  322 1095 1099 1121  322 1099 1104 1121  48 49 466 1056  47 48 465 1056  2 1006 1056 1122  432 465 466 1122  48 465 466 1056  47 48 1007 1056  465 466 1056 1122  465 1006 1056 1122  152 940 986 1045  276 304 346 986  278 304 396 1045  257 346 396 940  346 940 986 1045  304 346 986 1045  346 396 940 1045  304 346 396 1045  689 714 718 996  25 714 717 965  252 965 996 1000  676 717 718 1000  714 718 996 1000  714 965 996 1000  714 717 965 1000  714 717 718 1000  519 585 622 1124  528 622 623 1123  585 669 1123 1124  530 585 623 755  585 622 1123 1124  585 622 623 1123  585 623 755 1123  585 669 713 1124  112 113 1125 1126  49 466 1056 1125  2 112 1056 1122  432 466 1122 1126  466 1056 1125 1126  466 1056 1122 1126  112 1056 1122 1126  112 1056 1125 1126  680 773 1102 1127  58 562 1094 1102  675 773 1094 1128  518 562 1127 1128  773 1094 1102 1127  562 1094 1102 1127  562 1094 1127 1128  773 1094 1127 1128  265 391 416 959  262 416 417 933  284 391 417 914  128 914 933 959  391 416 933 959  391 416 417 933  391 914 933 959  391 417 914 933  256 390 957 992  829 891 918 1267  821 823 1097 1202  437 516 1129 1130  186 914 957 992  793 820 822 1100  516 1097 1129 1130  823 1097 1129 1130  443 502 1131 1133  795 816 1131 1132  442 502 1132 1134  792 816 1133 1134  816 1131 1132 1133  816 1132 1133 1134  502 1132 1133 1134  502 1131 1132 1133  256 367 388 991  258 367 387 969  29 958 969 991  259 387 388 958  367 388 958 991  367 958 969 991  367 387 958 969  367 387 388 958  256 991 1017 1079  29 30 190 991  30 31 189 1017  142 189 190 1079  190 991 1017 1079  30 190 991 1017  189 190 1017 1079  30 189 190 1017  832 859 870 960  121 874 1004 1253  249 334 335 960  69 70 335 1250  70 859 870 960  70 71 334 960  70 335 960 1250  70 334 335 960  279 294 296 1058  62 63 847 1055  6 62 294 1059  120 121 874 1253  294 296 1055 1058  62 294 296 1055  696 735 975 1253  735 975 1004 1253  276 288 289 986  42 288 1049 1089  4 42 289 1049  136 986 989 1049  288 986 989 1049  288 289 986 1049  42 288 289 1049  288 989 1049 1089  520 578 625 923  537 578 624 923  147 908 923 1023  538 624 625 1023  578 624 625 923  537 578 923 924  624 625 923 1023  624 908 923 1023  566 616 1135 1136  680 777 1127 1135  777 1136 1137 1142  518 566 1127 1137  566 1127 1135 1136  777 1127 1135 1136  566 1127 1136 1137  777 1127 1136 1137  446 484 1138 1139  18 799 974 1138  433 504 974 1140  798 799 1139 1140  799 974 1138 1139  799 974 1139 1140  504 974 1139 1140  484 974 1138 1139  446 481 483 1138  93 479 481 1091  18 1091 1138 1141  436 479 483 1141  479 481 483 1138  479 481 1091 1138  479 483 1138 1141  479 1091 1138 1141  536 664 1088 1142  681 786 1116 1142  786 1088 1106 1114  531 664 1114 1116  664 1088 1116 1142  786 1088 1116 1142  664 1088 1114 1116  786 1088 1114 1116  57 58 318 1095  56 57 319 1096  248 318 319 1076  674 1076 1095 1096  57 318 1095 1096  57 318 319 1096  318 1076 1095 1096  318 319 1076 1096  518 1128 1137 1143  675 778 780 1128  681 778 1137 1203  779 780 1143 1204  778 1128 1137 1143  778 780 1128 1143  778 779 780 1143  681 778 779 1203  254 300 301 1066  44 45 300 990  43 44 301 990  139 990 1030 1066  300 990 1030 1066  300 301 990 1066  44 300 301 990  44 45 990 1054  261 403 404 968  259 399 404 962  27 953 962 968  260 399 403 953  399 403 404 968  399 404 962 968  399 403 953 968  399 953 962 968  146 237 238 1025  80 930 931 1025  135 228 237 930  140 228 238 931  228 238 931 1025  228 237 238 1025  228 237 930 1025  228 930 931 1025  274 358 424 1051  264 410 424 1018  282 358 410 1073  667 1018 1051 1073  410 424 1018 1051  410 1018 1051 1073  358 410 1051 1073  358 410 424 1051  521 603 630 1039  532 603 629 944  9 944 978 1039  540 629 630 1039  521 630 1002 1039  603 944 978 1039  603 629 944 1039  603 629 630 1039  433 451 484 974  95 451 482 971  18 971 974 1138  446 482 484 1138  451 482 484 974  451 482 971 974  482 484 974 1138  482 971 974 1138  260 408 953 1081  27 715 953 967  286 408 967 997  689 715 997 1081  715 953 967 1081  715 967 997 1081  408 967 997 1081  408 953 967 1081  278 302 303 1113  254 301 302 1066  43 301 303 989  136 182 241 1113  301 302 1066 1113  301 989 1066 1113  301 303 989 1113  301 302 303 1113  681 777 778 1137  680 773 777 1127  675 773 778 1128  518 1127 1128 1137  777 778 1127 1137  773 777 778 1127  778 1127 1128 1137  773 778 1127 1128  687 699 732 1144  670 730 732 1145  117 730 1044 1144  87 1044 1144 1145  730 732 1144 1145  730 1044 1144 1145  117 699 730 1144  699 730 732 1144  120 696 1253 1262  62 846 1055 1059  6 62 846 1059  390 914 957 992  125 846 849 1059  126 846 847 1260  231 906 934 955  62 846 847 1055  829 912 918 1267  536 638 640 1088  846 847 1055 1260  522 612 638 1031  612 638 640 1088  127 842 1046 1252  612 638 1031 1088  3 127 842 1252  20 21 179 1089  43 988 989 1089  21 22 180 988  136 179 180 989  179 180 989 1089  21 179 180 1089  21 180 988 1089  180 988 989 1089  56 57 561 1093  675 1093 1094 1128  57 58 562 1094  518 561 562 1128  561 1093 1094 1128  561 562 1094 1128  57 561 562 1094  57 561 1093 1094  276 288 304 986  278 303 304 1113  43 288 303 989  136 986 989 1113  303 304 986 1113  303 986 989 1113  288 303 986 989  288 303 304 986  689 715 721 1081  260 953 954 1081  27 715 719 953  667 719 721 954  719 721 954 1081  715 719 721 1081  715 719 953 1081  719 953 954 1081  718 776 1103 1146  375 1060 1109 1146  791 823 1097 1098  791 823 1097 1098  433 973 974 1140  18 19 799 974  19 20 809 973  798 799 809 1140  809 973 974 1140  19 809 973 974  19 799 809 974  799 809 974 1140  270 312 1075 1147  49 308 312 1086  270 999 1075 1147  312 1075 1086 1147  308 312 313 1147  308 312 1086 1147  548 564 566 1135  58 562 564 1102  680 1102 1127 1135  518 562 566 1127  564 566 1127 1135  564 1102 1127 1135  562 564 1102 1127  562 564 566 1127  535 1106 1107 1148  677 709 762 1148  678 762 763 1107  671 763 1033 1067  762 1106 1107 1148  709 762 1107 1148  709 762 763 1107  678 762 1106 1107  93 586 592 1014  92 1117 1118 1149  15 157 1013 1117  157 158 1014 1149  92 1013 1014 1149  92 1013 1117 1149  157 1013 1014 1149  157 1013 1117 1149  842 843 927 1252  842 927 1046 1252  679 753 756 1150  530 686 755 1150  3 842 843 1252  836 839 943 1251  686 755 756 1150  753 755 756 1150  819 827 1101 1151  435 492 1151 1152  822 1100 1129 1152  438 492 1100 1101  827 1100 1101 1151  827 1100 1151 1152  492 1100 1151 1152  492 1100 1101 1151  140 245 949 1111  541 627 1111 1153  520 627 949 1082  149 245 1082 1153  22 23 1054 1154  2 23 1006 1155  45 46 462 1054  440 462 1154 1155  23 1054 1154 1155  23 1006 1054 1155  462 1054 1154 1155  46 1006 1054 1155  797 825 827 1152  795 819 825 1156  435 1151 1152 1156  794 819 827 1101  825 827 1152 1156  819 825 827 1156  819 827 1151 1156  827 1151 1152 1156  119 836 839 1251  0 119 836 1251  687 713 757 1157  530 686 755 1157  1 17 1090 1158  17 18 1091 1141  93 479 1090 1091  436 479 1141 1158  17 1090 1141 1158  17 1090 1091 1141  479 1090 1141 1158  479 1090 1091 1141  46 47 463 1006  46 463 1006 1155  0 836 837 945  440 462 463 1155  46 462 463 1155  836 943 945 1251  46 462 1054 1155  134 906 946 955  674 749 774 1099  689 749 776 1078  267 1078 1099 1104  692 774 776 1104  749 774 776 1099  749 776 1078 1099  774 776 1099 1104  776 1078 1099 1104  687 713 1157 1159  519 585 1124 1159  585 669 713 755  530 585 755 1157  585 713 1157 1159  585 713 1124 1159  585 713 755 1157  585 669 755 1123  20 811 973 1161  63 847 1001 1055  445 453 1160 1161  453 973 1140 1160  811 973 1160 1161  63 64 847 1001  453 973 1160 1161  859 896 960 1250  269 329 330 963  25 963 965 1046  65 325 329 1046  252 325 330 965  329 330 963 965  329 963 965 1046  325 329 330 965  325 329 965 1046  112 113 702 1125  2 112 701 1056  49 1056 1086 1125  691 701 702 1086  112 701 702 1125  112 701 1056 1125  701 702 1086 1125  701 1056 1086 1125  796 805 1162 1163  440 464 1154 1162  22 805 1154 1164  429 464 1163 1164  805 1154 1162 1163  464 1154 1162 1163  464 1154 1163 1164  805 1154 1163 1164  668 750 1165 1167  60 567 1165 1166  680 750 1166 1168  523 567 1167 1168  750 1165 1166 1167  567 1165 1166 1167  567 1166 1167 1168  750 1166 1167 1168  248 318 323 1076  267 322 323 1099  58 318 322 1095  674 1076 1095 1099  318 323 1076 1099  318 322 323 1099  318 1076 1095 1099  318 322 1095 1099  20 809 811 973  791 811 812 1160  433 453 973 1140  798 809 812 1140  809 811 973 1160  809 811 812 1160  809 812 1140 1160  809 973 1140 1160  250 309 310 1016  31 1007 1012 1016  47 305 309 1007  253 305 310 1012  310 1007 1012 1016  305 310 1007 1012  305 309 310 1007  309 310 1007 1016  60 554 567 1165  668 1165 1167 1169  110 554 568 1169  523 567 568 1167  554 567 1165 1167  554 1165 1167 1169  554 567 568 1167  554 568 1167 1169  543 593 1015 1108  525 586 1170 1237  858 859 896 1250  92 93 586 1014  586 1013 1014 1015  525 586 593 1237  70 859 960 1250  69 70 859 1250  278 302 1077 1113  254 302 995 1066  182 241 1066 1113  241 242 1066 1077  302 1066 1077 1113  302 995 1066 1077  141 241 242 1077  241 1066 1077 1113  685 727 1084 1171  115 727 1065 1120  5 52 1120 1171  51 52 1065 1084  727 1065 1084 1171  727 1065 1120 1171  52 1065 1084 1171  52 1065 1120 1171  527 652 1172 1175  212 1153 1172 1173  541 643 652 1153  643 646 1108 1173  527 646 652 1175  652 1153 1172 1173  643 646 652 1173  643 652 1153 1173  541 1111 1153 1174  140 243 245 1111  137 243 244 1174  149 244 245 1153  244 1111 1153 1174  243 244 1111 1174  243 244 245 1111  244 245 1111 1153  646 652 1173 1175  153 212 1173 1175  212 244 1153 1173  69 858 859 1250  652 1172 1173 1175  212 1172 1173 1175  64 844 1001 1046  64 65 844 1046  20 21 1089 1161  21 22 988 1176  43 450 988 1089  445 450 1161 1176  21 1089 1161 1176  21 988 1089 1176  450 1089 1161 1176  450 988 1089 1176  93 590 1014 1020  18 159 971 1091  425 906 934 955  127 703 1001 1046  129 167 171 1227  114 115 814 1062  795 814 815 1177  434 1062 1063 1177  113 114 815 1063  114 814 815 1062  814 815 1062 1177  114 815 1062 1063  815 1062 1063 1177  425 906 946 955  93 94 590 1020  524 589 590 1020  7 97 852 882  94 589 590 1020  93 94 1020 1091  149 210 211 1092  538 1023 1024 1092  147 208 210 1023  129 208 211 1024  210 211 1024 1092  210 1023 1024 1092  208 210 211 1024  208 210 1023 1024  271 354 428 1068  281 427 428 1103  267 354 427 1078  689 1068 1078 1103  428 1068 1078 1103  354 428 1068 1078  354 427 428 1078  427 428 1078 1103  49 466 468 1125  113 1125 1126 1178  443 468 1126 1178  432 466 470 1126  466 468 1125 1126  468 1125 1126 1178  466 468 470 1126  443 468 470 1126  537 624 666 908  533 665 666 894  209 894 908 1023  538 624 665 1023  624 666 908 1023  666 894 908 1023  665 666 894 1023  624 665 666 1023  109 876 1029 1179  736 739 1169 1179  122 738 1179 1261  688 738 739 1029  110 877 1169 1180  668 736 739 1169  108 109 876 1029  739 1028 1029 1180  137 174 244 1108  149 212 244 1153  153 174 212 1173  851 854 890 912  174 244 1108 1173  174 212 244 1173  851 852 854 890  98 853 871 880  21 22 810 1176  20 21 811 1161  791 811 1160 1197  445 1160 1161 1176  21 811 1161 1176  811 1160 1161 1176  811 1160 1176 1197  21 810 811 1176  437 498 1129 1181  793 822 1100 1129  822 1129 1152 1202  76 297 890 912  498 1100 1129 1181  793 1100 1129 1181  375 1103 1105 1146  389 914 957 958  283 426 934 942  141 235 942 1009  138 235 934 1022  266 426 1009 1022  426 934 942 1009  235 934 942 1009  426 934 1009 1022  235 934 1009 1022  678 764 788 1031  683 740 764 1032  688 740 788 1027  186 914 957 958  764 1027 1031 1032  764 788 1027 1031  740 764 788 1027  740 764 1027 1032  669 753 755 1123  528 623 1123 1182  679 753 1150 1182  530 623 755 1150  623 753 755 1123  623 753 1123 1182  623 753 755 1150  623 753 1150 1182  4 77 289 987  534 614 1214 1240  97 853 880 882  77 78 290 987  77 289 290 987  348 904 929 951  78 550 987 1085  34 35 856 961  448 505 513 1130  227 904 929 951  444 505 516 1097  437 513 516 1130  348 928 929 951  133 227 229 929  505 513 516 1130  505 516 1097 1130  106 874 975 1004  683 733 735 1004  120 696 733 1253  693 696 735 975  874 975 1004 1253  733 735 1004 1253  11 167 169 1194  696 733 735 1253  24 25 703 1046  3 24 127 1252  65 842 844 1046  527 647 1175 1227  24 127 703 1046  24 127 1046 1252  595 916 917 1247  127 842 844 1046  80 570 574 931  520 574 575 949  140 931 949 1112  542 570 575 1112  570 574 575 931  574 575 931 949  570 575 931 1112  575 931 949 1112  541 626 627 1153  538 625 626 1092  520 625 627 1082  149 1082 1092 1153  626 1082 1092 1153  626 627 1082 1153  625 626 627 1082  625 626 1082 1092  117 118 1184 1185  1 118 1183 1186  89 475 1183 1184  431 475 1185 1186  118 1183 1185 1186  475 1183 1185 1186  475 1183 1184 1185  118 1183 1184 1185  443 1131 1133 1178  113 806 815 1178  795 815 816 1131  792 806 816 1133  806 1131 1133 1178  806 815 1131 1178  806 816 1131 1133  806 815 816 1131  89 90 1183 1187  90 91 1118 1119  1 697 1118 1183  687 697 698 1187  90 1119 1183 1187  90 1118 1119 1183  697 1119 1183 1187  697 1118 1119 1183  265 392 393 1071  256 379 392 1079  287 379 393 994  142 994 1071 1079  392 393 1071 1079  379 392 393 1079  393 994 1071 1079  379 393 994 1079  31 700 1016 1057  49 308 1057 1086  670 732 761 1145  687 732 757 1157  35 856 939 961  530 581 686 1157  581 732 761 1157  732 757 761 1157  581 686 761 1157  686 757 761 1157  149 212 1153 1172  137 244 1108 1174  541 643 1153 1174  646 1108 1173 1213  78 550 571 1085  130 1019 1021 1085  95 550 572 1019  542 571 572 1021  571 572 1021 1085  550 571 572 1085  550 572 1019 1085  572 1019 1021 1085  680 772 775 1102  674 772 774 1095  58 1095 1102 1121  692 774 775 1121  772 775 1102 1121  772 1095 1102 1121  772 774 1095 1121  772 774 775 1121  798 799 1139 1188  446 483 1138 1139  18 799 1138 1141  436 483 1141 1188  799 1139 1141 1188  799 1138 1139 1141  483 1138 1139 1141  483 1139 1141 1188  672 746 1050 1189  274 317 1050 1052  275 317 1189 1190  673 746 1052 1190  681 777 787 1142  688 752 787 1087  752 777 1168 1191  536 1087 1142 1191  787 1087 1142 1191  777 787 1142 1191  752 777 787 1191  752 787 1087 1191  136 214 241 1113  152 214 239 1045  278 1045 1077 1113  141 239 241 1077  214 241 1045 1113  214 239 241 1045  239 241 1045 1077  241 1045 1077 1113  91 92 587 1117  15 1013 1117 1170  525 586 587 1170  92 586 1013 1014  92 587 1013 1117  587 1013 1117 1170  92 586 587 1013  586 587 1013 1170  687 697 699 1187  1 118 697 1183  89 1183 1184 1187  117 118 699 1184  697 699 1184 1187  697 1183 1184 1187  118 697 1183 1184  118 697 699 1184  116 117 730 1044  670 729 730 1145  115 116 729 1047  87 1044 1047 1145  116 730 1044 1145  116 729 730 1145  116 1044 1047 1145  116 729 1047 1145  529 635 636 1067  522 634 636 1033  671 709 763 1067  535 634 635 1107  635 636 1067 1107  636 1033 1067 1107  634 636 1033 1107  634 635 636 1107  0 119 695 1251  119 120 696 1262  693 695 696 943  104 836 839 943  119 696 1251 1262  696 943 1251 1262  695 696 943 1251  119 695 696 1251  1 158 1090 1118  91 92 1117 1118  92 93 1014 1090  150 157 158 1014  158 1090 1118 1149  92 1090 1118 1149  158 1014 1090 1149  92 1014 1090 1149  169 170 1175 1193  11 169 1192 1194  645 1192 1193 1200  645 647 1175 1194  169 1175 1193 1194  169 1192 1193 1194  645 1175 1193 1194  645 1192 1193 1194  101 102 598 1249  521 598 599 977  830 838 873 977  100 101 873 1257  101 598 977 1249  101 598 599 977  101 838 873 977  101 838 977 1249  98 99 596 1265  99 100 595 1247  533 595 596 917  99 595 596 1265  833 879 917 1247  595 596 917 1265  441 485 1195 1196  796 813 1163 1195  791 813 1196 1197  429 485 1163 1197  485 1163 1195 1196  813 1163 1195 1196  485 1163 1196 1197  813 1163 1196 1197  675 768 769 1093  673 748 769 1198  56 1093 1096 1198  674 748 768 1096  768 769 1093 1096  769 1093 1096 1198  748 769 1096 1198  748 768 769 1096  31 700 723 1016  723 999 1075 1147  700 723 1016 1147  700 723 1075 1147  270 313 998 1147  270 312 313 1147  130 213 217 1085  152 213 218 985  146 217 218 1041  78 985 1041 1085  213 985 1041 1085  213 217 1041 1085  213 217 218 1041  213 218 985 1041  687 732 1144 1157  670 761 1145 1224  87 581 1144 1145  802 820 1181 1220  581 732 1144 1157  581 732 1144 1145  69 331 897 920  34 165 193 961  286 408 413 997  271 412 413 1068  260 408 412 1081  689 997 1068 1081  413 997 1068 1081  408 413 997 1081  408 412 413 1081  412 413 1068 1081  89 90 475 1183  1 1118 1183 1186  90 91 476 1118  431 475 476 1186  475 476 1183 1186  90 475 476 1183  90 476 1118 1183  476 1118 1183 1186  140 238 931 1112  146 238 1025 1034  80 570 931 1025  542 570 1034 1112  238 931 1034 1112  238 931 1025 1034  570 931 1034 1112  570 931 1025 1034  677 707 712 1199  669 711 712 1201  13 707 711 1200  526 1199 1200 1201  707 712 1199 1201  707 711 712 1201  707 1199 1200 1201  707 711 1200 1201  444 515 516 1097  821 822 823 1202  439 511 515 1202  437 511 516 1129  516 1097 1129 1202  511 516 1129 1202  511 515 516 1202  515 516 1097 1202  529 651 660 1110  11 981 1038 1110  532 629 660 981  540 629 651 1038  651 981 1038 1110  629 651 981 1038  629 651 660 981  651 660 981 1110  549 1143 1203 1204  518 615 1137 1143  778 779 1143 1203  690 779 780 1204  549 615 1143 1203  615 1137 1143 1203  779 1143 1203 1204  778 1137 1143 1203  2 112 807 1122  112 113 806 1126  432 1122 1126 1205  792 806 807 1205  112 807 1122 1126  112 806 807 1126  806 807 1126 1205  807 1122 1126 1205  20 1040 1089 1161  42 43 450 1089  4 42 449 1040  445 449 450 1161  449 1040 1089 1161  42 449 1040 1089  42 449 450 1089  449 450 1089 1161  89 580 584 1187  519 584 585 1159  687 1157 1159 1187  530 580 585 1157  580 584 1159 1187  580 584 585 1159  580 585 1157 1159  580 1157 1159 1187  437 498 509 1129  797 822 827 1152  435 492 509 1152  438 492 498 1100  498 509 1100 1129  509 1100 1129 1152  492 498 509 1100  492 509 1100 1152  267 321 322 1104  58 59 322 1121  692 1104 1121 1206  59 60 321 1206  321 322 1104 1121  59 321 322 1121  59 321 1121 1206  321 1104 1121 1206  101 873 977 1257  850 891 1254 1267  798 803 812 1130  437 1129 1130 1181  793 803 1129 1181  331 897 919 920  803 1129 1130 1181  803 823 1129 1130  445 461 1160 1176  810 811 1176 1197  22 810 1164 1176  429 461 1164 1197  461 1160 1176 1197  791 810 811 1197  461 1164 1176 1197  810 1164 1176 1197  4 449 452 1040  20 973 1040 1161  445 449 453 1161  433 452 453 973  449 452 973 1040  449 973 1040 1161  449 452 453 973  449 453 973 1161  681 777 1137 1142  777 1135 1168 1191  548 566 616 1135  536 616 1142 1191  777 1136 1142 1191  777 1135 1136 1191  616 1136 1142 1191  616 1135 1136 1191  430 456 457 1083  115 1047 1083 1120  5 86 456 1120  86 87 457 1047  456 457 1047 1083  456 1047 1083 1120  86 456 457 1047  86 456 1047 1120  130 987 1019 1085  95 96 550 1019  4 77 96 987  77 78 550 987  550 987 1019 1085  96 550 987 1019  614 1143 1214 1240  77 96 550 987  253 310 365 1012  250 310 364 1016  31 1012 1016 1017  256 364 365 1017  310 364 365 1012  310 364 1012 1016  364 365 1012 1017  364 1012 1016 1017  78 79 571 1041  79 80 570 1025  146 1025 1034 1041  542 570 571 1034  79 570 571 1041  79 570 1025 1041  570 571 1034 1041  570 1025 1034 1041  117 699 1144 1184  89 1144 1184 1187  687 699 1144 1187  87 472 1044 1144  117 1043 1144 1184  699 1144 1184 1187  89 580 1144 1187  117 1043 1044 1144  113 806 1126 1178  443 470 1126 1133  432 1126 1133 1205  792 806 1133 1205  806 1126 1133 1178  443 1126 1133 1178  806 1126 1133 1205  432 501 1133 1205  22 23 805 1154  2 23 804 1155  440 1154 1155 1162  796 804 805 1162  23 804 805 1154  23 804 1154 1155  804 805 1154 1162  804 1154 1155 1162  850 912 1263 1267  277 340 343 1267  75 298 340 1254  285 298 912 1267  850 1254 1263 1267  277 343 887 1267  298 912 1263 1267  298 340 343 1267  685 727 731 1171  5 1120 1171 1207  115 727 1120 1207  729 731 1207 1224  727 731 1171 1207  727 1120 1171 1207  727 729 731 1207  115 727 729 1207  692 782 1109 1206  682 782 1058 1208  279 295 1058 1109  60 295 1206 1208  782 1058 1206 1208  295 1058 1206 1208  295 1058 1109 1206  782 1058 1109 1206  484 504 974 1139  448 1130 1139 1140  446 484 506 1139  798 1130 1139 1140  448 505 1130 1140  433 484 504 974  484 504 506 1139  448 504 506 1139  264 423 424 1050  274 317 424 1050  275 317 423 1189  672 1050 1053 1189  264 424 1018 1050  317 423 424 1050  423 1050 1053 1189  317 423 1050 1189  771 1215 1233 1235  331 335 336 897  694 943 944 947  877 1169 1179 1180  109 876 877 1179  122 736 738 1179  109 877 1179 1180  771 1215 1216 1233  108 109 611 1029  546 610 611 1028  109 110 610 1180  688 739 1028 1029  610 611 1028 1029  610 1028 1029 1180  109 610 1029 1180  109 610 611 1029  94 95 482 971  93 94 481 1091  18 971 1091 1138  446 481 482 1138  481 482 971 1138  481 971 1091 1138  94 481 971 1091  94 481 482 971  108 876 1026 1029  122 734 738 1261  683 734 740 1026  688 738 740 1029  738 1026 1029 1261  734 738 1026 1261  738 740 1026 1029  734 738 740 1026  871 880 917 1265  821 1097 1202 1209  441 488 1196 1209  444 1097 1098 1196  791 1097 1098 1196  821 1097 1196 1209  444 488 1097 1196  488 1097 1196 1209  535 634 639 1106  678 1031 1088 1106  536 638 639 1088  522 634 638 1031  634 639 1031 1106  639 1031 1088 1106  634 638 639 1031  638 639 1031 1088  540 648 1038 1194  526 645 648 1192  11 1038 1192 1194  647 1175 1194 1227  540 647 648 1194  648 1038 1192 1194  645 648 1192 1194  645 647 648 1194  51 454 469 1064  113 1063 1064 1178  434 454 471 1063  443 469 471 1178  469 1063 1064 1178  469 471 1063 1178  454 469 471 1063  454 469 1063 1064  794 819 1080 1101  795 819 1156 1210  435 491 1151 1156  430 491 1080 1210  819 1080 1151 1210  819 1151 1156 1210  491 1080 1151 1210  491 1151 1156 1210  690 780 1204 1240  277 340 341 891  74 75 340 1254  829 850 862 891  73 74 341 891  74 340 341 891  74 850 862 891  74 340 891 1254  688 752 1087 1211  523 1168 1191 1211  680 777 1135 1168  536 641 1087 1191  752 1087 1191 1211  752 1168 1191 1211  523 569 1168 1191  641 1087 1191 1211  679 785 789 1115  681 779 785 1116  690 779 789 1212  531 1115 1116 1212  785 1115 1116 1212  785 789 1115 1212  779 785 789 1212  779 785 1116 1212  829 850 851 912  75 76 298 1263  601 943 944 947  285 297 298 912  76 850 851 912  76 298 912 1263  558 1215 1233 1235  76 297 298 912  153 170 174 1173  13 170 172 1213  137 172 174 1108  593 646 1108 1213  170 174 1173 1213  170 172 174 1213  174 1108 1173 1213  172 174 1108 1213  797 821 1202 1209  439 515 1202 1209  441 488 517 1209  444 488 515 1097  515 1097 1202 1209  439 1202 1209 1223  488 515 1097 1209  488 515 517 1209  693 696 943 975  224 895 924 928  105 106 874 975  104 105 839 975  696 943 975 1262  101 102 838 1249  104 105 605 975  105 839 874 975  56 559 1093 1198  673 769 1198 1215  675 769 1093 1214  534 559 1214 1215  559 1093 1198 1215  769 1093 1198 1215  559 1093 1214 1215  769 1093 1214 1215  317 1050 1052 1190  1 16 158 1118  15 16 157 1117  317 1050 1189 1190  16 1117 1118 1149  16 158 1118 1149  16 157 158 1149  16 157 1117 1149  440 462 464 1154  45 460 462 1054  22 1054 1154 1164  429 460 464 1164  460 462 464 1154  460 462 1054 1154  460 464 1154 1164  460 1054 1154 1164  441 1195 1196 1209  796 813 824 1195  797 821 824 1209  791 813 821 1196  824 1195 1196 1209  813 824 1195 1196  813 821 824 1196  821 824 1196 1209  55 56 559 1198  54 55 558 1216  673 1198 1215 1216  534 558 559 1215  55 559 1198 1215  55 1198 1215 1216  55 558 1215 1216  55 558 559 1215  523 569 641 1191  548 569 616 1135  680 752 777 1168  536 616 641 1191  523 641 1191 1211  569 1135 1168 1191  569 616 1135 1191  569 616 641 1191  671 947 976 1067  539 606 637 976  529 637 660 1067  532 606 660 947  660 947 976 1067  637 660 976 1067  606 637 660 976  606 660 947 976  17 18 799 1141  1 17 800 1158  798 799 800 1188  436 1141 1158 1188  17 800 1141 1158  800 1141 1158 1188  799 800 1141 1188  17 799 800 1141  670 729 731 1224  5 86 1120 1207  115 729 1047 1207  86 87 1047 1145  729 1047 1145 1207  115 1047 1120 1207  86 1047 1120 1207  86 1047 1145 1207  8 9 155 979  0 8 154 979  830 834 979 1255  148 154 155 950  8 154 155 979  746 1050 1052 1190  154 155 950 979  154 950 979 1255  531 659 664 1114  678 786 1088 1106  536 639 664 1088  535 639 659 1106  639 659 1106 1114  639 659 664 1114  639 664 1088 1114  639 1088 1106 1114  49 50 468 1125  113 1064 1125 1178  50 51 469 1064  443 468 469 1178  468 469 1125 1178  50 468 469 1125  50 469 1064 1125  469 1064 1125 1178  682 1059 1208 1217  6 61 1059 1217  60 61 1165 1208  668 743 1165 1217  682 741 1059 1217  61 1059 1208 1217  743 1165 1208 1217  61 1165 1208 1217  838 977 979 1249  251 331 332 920  831 845 857 920  67 68 332 1244  68 69 331 920  68 331 332 920  68 332 920 1244  68 845 920 1244  92 93 479 1090  91 92 478 1118  1 1090 1118 1158  436 478 479 1158  92 478 479 1090  92 478 1090 1118  478 479 1090 1158  478 1090 1118 1158  124 125 741 1217  682 741 742 1059  6 846 849 1059  563 614 615 1143  125 741 1059 1217  224 895 908 924  577 895 924 928  125 741 742 1059  13 170 1213 1218  153 170 1173 1175  527 646 1175 1218  543 643 646 1108  170 1173 1213 1218  170 1173 1175 1218  646 1173 1213 1218  646 1173 1175 1218  523 1167 1168 1211  680 750 752 1168  668 739 750 1167  688 739 752 1211  752 1167 1168 1211  750 752 1167 1168  739 752 1167 1211  739 750 752 1167  15 698 1117 1219  91 583 1117 1119  519 583 1159 1219  687 698 1159 1187  698 1117 1119 1219  583 1117 1119 1219  698 1119 1159 1219  583 1119 1159 1219  78 571 1041 1085  146 217 1034 1041  130 217 1021 1085  542 571 1021 1034  571 1034 1041 1085  217 1034 1041 1085  571 1021 1034 1085  217 1021 1034 1085  87 88 581 1144  88 89 580 1144  687 1144 1157 1187  530 580 581 1157  88 580 581 1144  88 89 1144 1184  580 581 1144 1157  580 1144 1157 1187  259 404 406 962  27 962 968 984  280 405 406 984  261 404 405 968  404 962 968 984  404 405 968 984  404 405 406 984  404 406 962 984  445 450 461 1176  22 988 1164 1176  43 450 459 988  429 459 461 1164  459 461 1164 1176  450 459 461 1176  450 459 988 1176  459 988 1164 1176  431 477 1185 1220  117 817 1043 1185  794 817 1042 1220  447 477 1042 1043  477 1042 1185 1220  817 1042 1185 1220  817 1042 1043 1185  477 1042 1043 1185  447 472 473 1043  88 89 473 1184  87 88 472 1144  88 472 1043 1144  88 472 473 1043  88 473 1043 1184  472 1043 1044 1144  88 1043 1144 1184  258 368 400 1005  672 722 999 1053  264 400 402 1053  270 368 402 999  368 402 999 1005  368 400 402 1005  400 402 1005 1053  402 999 1005 1053  531 657 658 1115  679 1115 1150 1182  528 623 657 1182  530 623 658 1150  623 658 1115 1150  623 657 658 1115  623 657 1115 1182  623 1115 1150 1182  139 993 1030 1066  254 300 307 1066  45 300 306 1030  253 306 307 1011  139 993 1011 1030  300 307 1030 1066  306 307 1011 1030  300 306 307 1030  689 718 776 1103  374 375 1103 1221  279 375 1060 1109  718 1000 1060 1221  718 1103 1146 1221  375 1103 1146 1221  718 1060 1146 1221  375 1060 1146 1221  115 814 1062 1083  434 458 1062 1177  795 814 1177 1210  430 458 1083 1210  814 1062 1083 1210  814 1062 1177 1210  458 1062 1177 1210  458 1062 1083 1210  429 485 487 1197  746 1050 1189 1190  441 485 488 1196  444 487 488 1196  487 1098 1196 1197  444 487 1098 1196  485 487 488 1196  485 487 1196 1197  11 1038 1110 1192  529 649 651 1110  526 648 649 1192  540 648 651 1038  648 1038 1110 1192  648 649 1110 1192  648 649 651 1110  648 651 1038 1110  793 801 802 1181  1 118 801 1186  117 118 802 1185  431 1181 1185 1186  801 1181 1185 1186  801 802 1181 1185  118 801 802 1185  118 801 1185 1186  668 1165 1169 1217  6 61 111 1217  60 61 554 1165  110 111 554 1169  554 1165 1169 1217  61 554 1165 1217  61 111 554 1217  111 554 1169 1217  50 51 311 1222  691 1075 1086 1222  49 50 312 1086  270 311 312 1075  311 312 1075 1222  50 311 312 1222  50 312 1086 1222  312 1075 1086 1222  115 1062 1083 1120  5 455 456 1120  434 455 458 1062  430 456 458 1083  456 1062 1083 1120  455 456 1062 1120  456 458 1062 1083  455 456 458 1062  505 812 1130 1140  244 1108 1173 1174  433 453 503 1140  444 505 1097 1098  505 812 1098 1140  812 1098 1140 1160  505 812 1097 1098  503 1098 1140 1160  431 475 477 1185  89 473 475 1184  117 1043 1184 1185  447 473 477 1043  473 475 477 1185  473 475 1184 1185  473 477 1043 1185  473 1043 1184 1185  691 702 728 1222  113 702 726 1064  685 726 728 1084  51 1064 1084 1222  702 726 1064 1222  726 1064 1084 1222  726 728 1084 1222  702 726 728 1222  54 293 316 1216  275 293 317 1190  274 316 317 1052  673 1052 1190 1216  293 316 1190 1216  293 316 317 1190  316 1052 1190 1216  316 317 1052 1190  792 816 826 1134  795 816 825 1132  442 1132 1134 1223  797 825 826 1223  816 826 1132 1134  816 825 826 1132  825 826 1132 1223  826 1132 1134 1223  149 1092 1153 1172  541 626 652 1153  538 626 653 1092  527 652 653 1172  653 1092 1153 1172  626 653 1092 1153  626 652 653 1153  652 653 1153 1172  438 492 493 1101  819 1080 1101 1151  435 491 492 1151  430 491 493 1080  493 1080 1101 1151  491 493 1080 1151  491 492 493 1151  492 493 1101 1151  794 1042 1101 1220  438 494 1101 1220  431 477 497 1220  447 477 494 1042  494 1042 1101 1220  438 1100 1101 1220  477 494 1042 1220  477 494 497 1220  49 50 1086 1125  113 702 1064 1125  691 702 1086 1222  50 51 1064 1222  50 1086 1125 1222  702 1086 1125 1222  702 1064 1125 1222  50 1064 1125 1222  543 591 592 1015  93 590 592 1014  150 175 1014 1020  524 590 591 1020  590 591 592 1015  590 592 1014 1015  590 591 1015 1020  590 1014 1015 1020  2 804 1122 1155  467 1122 1162 1205  440 467 1155 1162  977 978 979 1249  804 1122 1155 1162  467 1122 1155 1162  103 837 945 1249  73 74 862 891  175 1014 1015 1020  137 175 1015 1048  543 591 1015 1108  524 591 1020 1048  175 1015 1020 1048  137 173 175 1015  591 1015 1020 1048  591 1015 1048 1108  677 707 708 1199  12 13 707 1200  11 12 708 1192  526 1192 1199 1200  707 1192 1199 1200  707 708 1192 1199  12 707 708 1192  12 707 1192 1200  121 122 734 1256  683 733 734 1004  120 121 733 1253  106 874 875 1004  121 734 1004 1256  121 733 734 1004  121 874 875 1004  121 733 1004 1253  518 563 1128 1143  445 453 489 1160  453 503 1140 1160  444 489 503 1098  73 862 863 891  568 1167 1169 1180  489 503 1098 1160  453 489 503 1160  433 503 504 1140  448 504 505 1140  798 812 1130 1140  503 505 1098 1140  503 504 505 1140  448 504 1139 1140  444 503 505 1098  505 812 1097 1130  796 1162 1163 1195  441 485 486 1195  440 464 486 1162  429 464 485 1163  486 1162 1163 1195  485 486 1163 1195  464 485 486 1163  464 486 1162 1163  683 1004 1026 1032  107 108 607 1026  522 607 608 1032  106 107 608 1004  608 1004 1026 1032  607 608 1026 1032  107 607 608 1026  107 608 1004 1026  436 478 480 1158  91 476 478 1118  1 1118 1158 1186  431 476 480 1186  476 478 480 1158  476 478 1118 1158  476 480 1158 1186  476 1118 1158 1186  683 734 1004 1026  122 876 1256 1261  107 108 876 1026  106 107 875 1004  734 1004 1026 1256  876 1026 1256 1261  107 875 1004 1026  107 875 876 1026  670 729 1145 1224  731 1171 1225 1231  5 551 1171 1207  545 551 1224 1225  731 1207 1224 1225  731 1171 1207 1225  551 1207 1224 1225  551 1171 1207 1225  681 779 1116 1203  549 661 1203 1204  690 779 1204 1212  531 661 1116 1212  779 1116 1203 1212  779 1203 1204 1212  661 1203 1204 1212  661 1116 1203 1212  692 776 783 1109  244 1153 1173 1174  643 1108 1173 1174  676 718 783 1060  776 783 1109 1146  718 776 783 1146  718 783 1060 1146  783 1060 1109 1146  441 486 499 1195  440 467 486 1162  467 499 1162 1205  39 866 883 1248  486 499 1162 1195  467 486 499 1162  39 865 866 883  38 39 866 1248  854 860 866 1248  854 866 883 1248  272 337 338 938  832 864 870 938  38 860 866 1248  71 72 338 938  72 337 338 938  76 851 890 912  795 1131 1132 1177  442 502 507 1132  434 471 507 1177  443 471 502 1131  507 1131 1132 1177  502 507 1131 1132  471 502 507 1131  471 507 1131 1177  801 803 1181 1188  798 800 803 1188  1 800 801 1158  7 76 851 890  537 895 908 924  800 801 803 1188  643 1153 1173 1174  800 801 1158 1188  654 655 1036 1172  558 1215 1216 1233  538 653 654 1092  527 653 655 1172  7 851 852 890  833 869 872 1247  653 654 655 1172  653 654 1092 1172  540 630 633 1037  129 1002 1036 1037  521 630 631 1002  544 631 633 1036  631 633 1036 1037  630 631 633 1037  630 631 1002 1037  631 1002 1036 1037  673 1052 1198 1216  274 315 316 1052  54 55 316 1216  55 56 315 1198  316 1052 1198 1216  315 316 1052 1198  55 315 316 1198  55 316 1198 1216  678 762 784 1106  679 754 784 1226  677 754 762 1148  535 1106 1148 1226  762 784 1106 1226  754 762 784 1226  762 1106 1148 1226  754 762 1148 1226  58 59 1102 1121  680 775 1102 1166  692 775 1121 1206  59 60 1166 1206  59 1102 1121 1166  775 1102 1121 1166  59 1121 1166 1206  775 1121 1166 1206  794 817 820 1220  793 802 820 1181  117 802 817 1185  431 1181 1185 1220  286 373 376 997  252 373 374 996  281 374 376 1103  689 996 997 1103  373 376 996 997  373 374 376 996  376 996 997 1103  374 376 996 1103  129 211 1036 1227  833 871 872 1247  544 654 655 1036  527 655 1172 1227  211 1036 1172 1227  99 871 872 1247  655 1036 1172 1227  99 100 872 1247  278 380 397 1077  141 942 1009 1077  283 397 426 942  266 380 426 1009  380 942 1009 1077  380 426 942 1009  380 397 426 942  380 397 942 1077  113 815 1063 1178  795 815 1131 1177  434 471 1063 1177  443 471 1131 1178  815 1063 1131 1178  815 1063 1131 1177  471 1063 1131 1178  471 1063 1131 1177  279 295 324 1109  267 321 324 1104  692 1104 1109 1206  60 295 321 1206  295 324 1104 1109  295 321 324 1104  295 321 1104 1206  295 1104 1109 1206  252 326 327 1000  63 296 326 1055  279 296 327 1060  676 1000 1055 1060  326 327 1000 1055  296 326 327 1055  327 1000 1055 1060  296 327 1055 1060  668 737 743 1217  682 741 743 1217  6 849 1059 1217  124 737 741 1217  737 741 743 1217  682 743 1208 1217  52 291 292 1084  225 878 895 908  442 500 1134 1223  441 500 1195 1209  808 826 1134 1195  797 826 1209 1223  500 1134 1209 1223  500 1134 1195 1209  826 1134 1209 1223  826 1134 1195 1209  670 758 761 1224  686 760 761 1229  758 760 1228 1229  582 1224 1228 1229  758 761 1224 1229  758 760 761 1229  758 1224 1228 1229  760 1228 1229 1241  44 45 460 1054  43 44 459 988  22 988 1054 1164  429 459 460 1164  44 460 988 1054  44 459 460 988  459 460 988 1164  460 988 1054 1164  794 818 819 1080  115 814 818 1083  795 814 819 1210  430 1080 1083 1210  818 819 1080 1083  814 818 819 1083  819 1080 1083 1210  814 819 1083 1210  100 872 873 1257  437 495 496 1181  436 480 496 1188  431 480 495 1181  869 872 873 1257  480 496 1181 1188  480 495 496 1181  700 1016 1057 1147  539 604 609 982  683 982 1004 1032  522 608 609 1032  106 604 608 982  106 604 975 982  604 608 609 982  608 609 982 1032  608 982 1004 1032  129 211 1024 1036  149 211 1092 1172  538 654 1024 1092  700 1057 1086 1147  211 1024 1036 1172  211 1024 1092 1172  654 1024 1036 1172  654 1024 1092 1172  39 40 200 1259  38 39 199 1248  828 865 866 883  132 199 200 883  39 199 883 1248  875 876 1026 1256  39 199 200 883  39 200 883 1259  308 1016 1057 1147  308 1057 1086 1147  536 616 617 1142  518 566 617 1137  566 617 1136 1137  566 616 617 1136  616 617 1136 1142  617 1136 1137 1142  528 621 1123 1230  669 712 1123 1201  677 712 1199 1230  526 621 1199 1201  621 1123 1201 1230  712 1123 1201 1230  621 1199 1201 1230  712 1199 1201 1230  5 53 291 1171  275 291 293 1232  53 54 293 1231  685 1171 1231 1232  53 291 1171 1232  53 291 293 1232  53 1171 1231 1232  53 293 1231 1232  448 506 514 1139  446 483 506 1139  798 1130 1139 1188  436 483 514 1188  448 514 1130 1139  483 506 514 1139  483 514 1139 1188  514 1130 1139 1188  792 808 826 1134  37 861 918 1246  432 467 499 1205  796 808 1162 1195  37 196 918 1246  36 37 861 1246  808 1162 1195 1205  499 1162 1195 1205  795 825 1132 1156  435 508 1152 1156  442 508 1132 1223  797 825 1152 1223  825 1152 1156 1223  825 1132 1156 1223  508 1132 1156 1223  508 1152 1156 1223  54 1216 1231 1233  684 759 771 1233  685 759 766 1231  673 766 771 1216  766 1216 1231 1233  759 766 1231 1233  759 766 771 1233  766 771 1216 1233  535 635 1107 1148  529 635 1067 1234  677 709 1148 1234  709 763 1067 1107  635 1067 1107 1148  635 1067 1148 1234  709 1067 1107 1148  709 1067 1148 1234  682 1058 1059 1208  6 61 294 1059  279 294 295 1058  60 61 295 1208  294 1058 1059 1208  61 294 1059 1208  61 294 295 1208  294 295 1058 1208  432 467 1122 1205  2 804 807 1122  792 807 808 1205  796 804 808 1162  807 1122 1162 1205  804 807 1122 1162  804 807 808 1162  807 808 1162 1205  86 87 553 1145  729 1145 1207 1224  5 86 551 1207  545 551 553 1224  553 1145 1207 1224  551 553 1207 1224  86 551 553 1207  86 553 1145 1207  684 758 759 1228  685 731 1171 1231  670 731 758 1224  545 1224 1225 1228  758 759 1225 1228  731 758 759 1225  758 1224 1225 1228  731 758 1224 1225  531 659 1114 1115  679 784 1115 1226  678 784 786 1106  535 659 1106 1226  659 1114 1115 1226  784 1114 1115 1226  659 1106 1114 1226  784 1106 1114 1226  526 645 1192 1200  13 170 1200 1218  153 169 170 1175  527 645 1175 1218  645 1193 1200 1218  170 1193 1200 1218  645 1175 1193 1218  170 1175 1193 1218  673 769 771 1215  684 770 771 1235  675 769 770 1214  534 1214 1215 1235  770 771 1215 1235  770 1214 1215 1235  769 770 1214 1215  769 770 771 1215  518 561 563 1128  56 559 561 1093  675 1093 1128 1214  534 559 563 1214  561 563 1128 1214  561 1093 1128 1214  559 561 1093 1214  559 561 563 1214  529 649 1110 1234  677 708 1199 1234  11 708 1110 1192  526 649 1192 1199  649 1110 1199 1234  708 1110 1199 1234  649 1110 1192 1199  708 1110 1192 1199  536 1087 1088 1142  681 786 787 1142  688 787 788 1087  678 786 788 1088  787 1087 1088 1142  786 787 1088 1142  786 787 788 1088  787 788 1087 1088  124 737 1169 1217  6 111 849 1217  668 737 1169 1217  110 111 848 1169  579 878 895 908  579 878 894 908  225 878 894 908  167 1037 1038 1194  544 633 655 1036  540 633 647 1037  129 1036 1037 1227  527 647 655 1227  633 655 1036 1227  633 1036 1037 1227  633 647 1037 1227  633 647 655 1227  435 509 510 1152  439 510 511 1202  797 821 822 1202  437 509 511 1129  509 510 511 1152  510 511 1152 1202  509 511 1129 1152  511 1129 1152 1202  148 156 879 950  40 867 1259 1264  830 835 869 950  833 867 869 879  156 867 879 950  156 867 950 1264  867 869 879 950  835 867 869 950  275 293 1190 1232  54 293 1216 1231  685 766 1231 1232  673 766 1190 1216  293 766 1190 1232  293 766 1231 1232  293 766 1216 1231  293 766 1190 1216  141 995 1009 1077  278 302 380 1077  254 302 381 995  266 380 381 1009  380 995 1009 1077  302 380 995 1077  380 381 995 1009  302 380 381 995  830 834 835 1255  0 41 154 1255  40 41 156 1264  148 154 156 950  835 950 1255 1264  41 835 1255 1264  154 156 950 1264  41 154 156 1264  831 840 841 899  33 34 165 1243  3 33 164 1266  144 164 165 899  33 165 899 1243  33 164 899 1266  33 164 165 899  739 1169 1179 1180  1 801 1158 1186  793 801 803 1181  436 480 1158 1188  431 480 1181 1186  480 801 1181 1186  480 801 1158 1186  480 801 1158 1188  480 801 1181 1188  540 647 1037 1194  828 852 853 882  547 555 557 882  167 1037 1194 1227  97 852 853 882  647 1037 1194 1227  97 555 557 882  109 110 877 1180  432 465 467 1122  47 463 465 1006  2 1006 1122 1155  440 463 467 1155  463 465 467 1122  463 465 1006 1122  463 467 1122 1155  463 1006 1122 1155  791 810 813 1197  796 805 813 1163  22 805 810 1164  429 1163 1164 1197  810 813 1163 1197  805 810 813 1163  810 1163 1164 1197  805 810 1163 1164  432 470 501 1133  443 470 502 1133  442 501 502 1134  792 1133 1134 1205  432 470 1126 1133  470 501 502 1133  501 1133 1134 1205  501 502 1133 1134  122 123 736 1179  123 124 737 1169  668 736 737 1169  110 848 877 1169  123 736 1169 1179  123 736 737 1169  540 1037 1038 1194  11 167 1038 1194  796 808 824 1195  792 808 1134 1205  861 891 918 1246  797 824 826 1209  808 824 826 1195  861 891 1245 1246  824 826 1195 1209  72 864 870 938  60 1165 1166 1208  680 750 751 1166  682 743 751 1208  668 743 750 1165  751 1165 1166 1208  750 751 1165 1166  743 750 751 1165  743 751 1165 1208  739 1029 1179 1180  794 820 1101 1220  438 497 1100 1220  431 497 1181 1220  820 1100 1181 1220  820 1100 1101 1220  497 1100 1181 1220  438 494 497 1220  11 704 708 1110  677 708 709 1234  529 1067 1110 1234  671 704 709 1067  704 708 709 1110  708 709 1110 1234  704 709 1067 1110  709 1067 1110 1234  685 731 759 1231  684 759 1228 1233  54 552 1231 1233  545 552 1225 1228  759 1225 1231 1233  759 1225 1228 1233  552 1225 1228 1233  552 1225 1231 1233  435 490 508 1156  442 507 508 1132  434 490 507 1177  795 1132 1156 1177  490 508 1132 1156  490 507 508 1132  490 1132 1156 1177  490 507 1132 1177  287 377 378 993  254 307 378 993  307 993 1011 1030  253 307 377 1011  307 377 378 993  254 378 993 995  307 377 993 1011  307 993 1030 1066  54 558 1216 1233  684 771 1233 1235  673 771 1215 1216  534 558 1215 1235  437 495 498 1181  72 864 893 938  438 497 498 1100  431 495 497 1181  72 73 864 893  855 863 893 1245  495 497 498 1181  497 498 1100 1181  527 644 645 1218  526 619 645 1200  13 1200 1218 1236  525 619 644 1236  619 644 645 1218  619 645 1200 1218  619 644 1218 1236  619 1200 1218 1236  685 1084 1171 1232  5 52 291 1171  275 291 292 1232  51 52 292 1084  89 90 584 1187  519 583 584 1159  90 91 583 1119  698 1119 1159 1187  584 1119 1159 1187  90 584 1119 1187  90 583 584 1119  583 584 1119 1159  525 593 1236 1237  15 173 1013 1170  172 173 1108 1237  543 592 593 1015  586 1013 1170 1237  173 1013 1170 1237  173 1013 1015 1237  173 1015 1108 1237  689 718 996 1103  252 996 1000 1221  281 374 375 1103  676 718 1000 1060  718 996 1103 1221  374 996 1103 1221  252 374 996 1221  718 996 1000 1221  672 746 767 1189  275 1189 1190 1232  685 766 767 1232  673 746 766 1190  746 767 1189 1190  767 1189 1190 1232  746 766 767 1190  766 767 1190 1232  60 565 567 1166  548 565 569 1135  680 1135 1166 1168  523 567 569 1168  565 567 1166 1168  565 1135 1166 1168  565 569 1135 1168  565 567 569 1168  279 1058 1060 1109  682 744 782 1058  692 782 783 1109  676 744 783 1060  783 1058 1060 1109  782 783 1058 1109  744 782 783 1058  744 783 1058 1060  692 775 782 1206  680 751 775 1166  682 751 782 1208  60 1166 1206 1208  751 775 1166 1206  751 1166 1206 1208  751 782 1206 1208  751 775 782 1206  441 499 500 1195  432 499 501 1205  442 500 501 1134  808 1134 1195 1205  499 1134 1195 1205  499 500 1134 1195  499 500 501 1134  499 501 1134 1205  434 458 490 1177  435 490 491 1156  795 1156 1177 1210  430 458 491 1210  458 490 1177 1210  490 1156 1177 1210  490 491 1156 1210  458 490 491 1210  531 658 1115 1212  690 789 1212 1238  679 789 1115 1150  530 658 1150 1238  658 1150 1212 1238  658 1115 1150 1212  789 1115 1150 1212  789 1150 1212 1238  286 376 413 997  281 376 428 1103  271 413 428 1068  689 997 1068 1103  376 413 997 1103  376 413 428 1103  413 997 1068 1103  413 428 1068 1103  525 593 644 1236  13 1213 1218 1236  527 644 646 1218  543 593 646 1108  593 644 1213 1236  644 1213 1218 1236  593 644 646 1213  644 646 1213 1218  681 1116 1142 1203  536 618 664 1142  549 618 661 1203  531 661 664 1116  618 1116 1142 1203  618 664 1116 1142  618 661 664 1116  618 661 1116 1203  252 327 374 1221  279 327 375 1060  109 1029 1179 1180  736 738 739 1179  327 1000 1060 1221  252 327 1000 1221  327 374 375 1221  327 375 1060 1221  794 1042 1080 1101  438 493 494 1101  447 474 494 1042  430 474 493 1080  493 1042 1080 1101  493 494 1042 1101  474 493 1042 1080  474 493 494 1042  149 211 212 1172  129 171 211 1227  153 171 212 1175  527 1172 1175 1227  211 212 1172 1227  171 211 212 1227  212 1172 1175 1227  171 212 1175 1227  545 553 582 1224  87 553 581 1145  581 761 1145 1224  36 855 863 1245  553 581 582 1224  553 581 1145 1224  863 891 893 1245  36 196 1245 1246  441 500 517 1209  442 500 512 1223  439 517 1209 1223  797 1202 1209 1223  500 517 1209 1223  500 512 517 1223  439 515 517 1209  439 510 1202 1223  680 1102 1135 1166  58 59 564 1102  548 564 565 1135  59 60 565 1166  565 1102 1135 1166  564 565 1102 1135  59 564 565 1102  59 565 1102 1166  68 845 857 920  679 756 789 1150  690 789 790 1238  530 686 1150 1238  686 756 1150 1238  686 756 790 1238  756 789 790 1238  756 789 1150 1238  129 167 1037 1227  527 645 647 1175  797 822 1152 1202  549 614 1143 1204  738 739 1029 1179  738 1029 1179 1261  793 803 823 1129  822 823 1129 1202  681 1137 1142 1203  536 617 618 1142  518 615 617 1137  549 615 618 1203  618 1137 1142 1203  617 618 1137 1142  615 618 1137 1203  615 617 618 1137  581 732 761 1145  67 68 845 1244  545 582 1224 1228  530 581 686 1229  526 620 1200 1201  669 711 1124 1201  13 711 1200 1239  519 620 1124 1239  534 663 1235 1240  684 781 1235 1241  690 781 1238 1240  530 663 1238 1241  663 1235 1240 1241  781 1235 1240 1241  663 1238 1240 1241  781 1238 1240 1241  690 1204 1238 1240  549 614 662 1204  534 614 663 1240  530 662 663 1238  662 1204 1238 1240  614 662 1204 1240  662 663 1238 1240  614 662 663 1240  439 510 512 1223  442 508 512 1223  435 508 510 1152  797 1152 1202 1223  439 512 517 1223  508 510 512 1223  510 1152 1202 1223  508 510 1152 1223  275 292 314 1242  691 1075 1222 1242  51 292 311 1222  270 311 314 1075  311 314 1075 1242  292 311 314 1242  292 311 1222 1242  311 1075 1222 1242  679 753 754 1182  528 1123 1182 1230  669 712 753 1123  677 712 754 1230  754 1123 1182 1230  712 754 1123 1230  712 753 754 1123  753 754 1123 1182  829 860 861 918  37 38 197 1258  36 37 196 1246  131 196 197 918  37 860 861 918  37 197 918 1258  37 196 197 918  691 700 1075 1086  685 728 1084 1232  275 292 1232 1242  691 728 1222 1242  51 292 1084 1222  728 1084 1232 1242  292 1084 1232 1242  292 1084 1222 1242  728 1084 1222 1242  669 710 711 1124  14 15 710 1219  13 14 711 1239  519 710 1219 1239  519 710 1124 1239  710 711 1124 1239  14 710 711 1239  14 710 1219 1239  700 1075 1086 1147  12 13 170 1200  11 12 169 1192  308 313 1016 1147  731 759 1225 1231  53 54 552 1231  5 53 551 1171  545 551 552 1225  53 1171 1225 1231  53 552 1225 1231  53 551 552 1225  53 551 1171 1225  429 461 487 1197  445 461 489 1160  250 308 313 1016  444 487 489 1098  461 487 489 1197  461 489 1160 1197  487 489 1098 1197  489 1098 1160 1197  137 172 173 1108  13 14 172 1236  14 15 173 1170  525 1170 1236 1237  14 172 1236 1237  14 1170 1236 1237  14 173 1170 1237  14 172 173 1237  677 754 1148 1230  679 754 1182 1226  528 656 1182 1230  535 656 1148 1226  754 1148 1226 1230  754 1182 1226 1230  656 1148 1226 1230  656 1182 1226 1230  845 920 925 1244  690 781 790 1238  684 760 781 1241  530 686 1238 1241  686 790 1238 1241  686 760 790 1241  760 781 790 1241  781 790 1238 1241  528 621 622 1123  669 1123 1124 1201  526 620 621 1201  519 620 622 1124  622 1123 1124 1201  620 622 1124 1201  620 621 622 1201  621 622 1123 1201  713 755 757 1157  843 845 925 1244  684 760 1228 1241  530 686 1229 1241  686 755 757 1157  13 172 1213 1236  627 1082 1111 1153  614 1143 1204 1240  172 1108 1213 1237  172 1213 1236 1237  593 1108 1213 1237  593 1213 1236 1237  528 621 650 1230  677 1199 1230 1234  529 649 650 1234  526 621 649 1199  621 650 1199 1230  650 1199 1230 1234  621 649 650 1199  649 650 1199 1234  546 613 640 1028  523 613 641 1211  688 1028 1087 1211  536 640 641 1087  613 1028 1087 1211  613 641 1087 1211  613 640 641 1087  613 640 1028 1087  549 661 662 1204  690 1204 1212 1238  531 658 661 1212  530 658 662 1238  662 1204 1212 1238  658 662 1212 1238  658 661 662 1212  661 662 1204 1212  675 770 780 1214  684 770 781 1235  690 780 781 1240  534 1214 1235 1240  770 1214 1235 1240  770 780 1214 1240  770 780 781 1240  770 781 1235 1240  275 314 423 1189  264 402 423 1053  672 999 1053 1189  270 314 402 999  314 423 999 1189  423 999 1053 1189  402 423 999 1053  314 402 423 999  534 560 663 1235  545 560 582 1228  684 1228 1235 1241  530 582 663 1241  560 663 1235 1241  560 1228 1235 1241  560 582 1228 1241  560 582 663 1241  543 591 643 1108  137 1048 1108 1174  541 642 643 1174  524 591 642 1048  591 1048 1108 1174  591 642 1048 1174  591 642 643 1174  591 643 1108 1174  684 1228 1233 1235  54 552 558 1233  545 552 560 1228  534 558 560 1235  560 1228 1233 1235  552 560 1228 1233  552 558 560 1233  558 560 1233 1235  832 855 856 939  35 36 194 1245  169 171 1175 1194  143 193 194 939  35 855 856 939  35 194 939 1245  35 193 194 939  627 949 1082 1111  531 657 659 1115  528 656 657 1182  679 1115 1182 1226  535 656 659 1226  657 659 1115 1226  657 1115 1182 1226  656 657 1182 1226  656 657 659 1226  519 710 1124 1159  669 710 713 1124  15 698 710 1219  687 698 713 1159  519 710 1159 1219  710 713 1124 1159  698 710 713 1159  698 710 1159 1219  91 583 587 1117  525 587 588 1170  15 1117 1170 1219  519 583 588 1219  583 587 1117 1219  587 1117 1170 1219  587 588 1170 1219  583 587 588 1219  672 725 999 1189  691 725 1075 1242  275 314 1189 1242  270 314 999 1075  725 999 1189 1242  725 999 1075 1242  314 999 1075 1242  314 999 1189 1242  525 588 1170 1236  13 14 1236 1239  14 15 1170 1219  519 588 1219 1239  588 1170 1236 1239  14 1170 1236 1239  588 1170 1219 1239  14 1170 1219 1239  529 635 650 1234  677 1148 1230 1234  528 650 656 1230  535 635 656 1148  635 650 1148 1234  650 1148 1230 1234  635 650 656 1148  650 656 1148 1230  525 588 619 1236  526 619 620 1200  13 1200 1236 1239  519 588 620 1239  588 619 1236 1239  619 1200 1236 1239  619 620 1200 1239  588 619 620 1239  275 1189 1232 1242  685 728 767 1232  691 725 728 1242  672 725 767 1189  767 1189 1232 1242  728 767 1232 1242  725 767 1189 1242  725 728 767 1242  263 363 901 935  143 223 892 903  134 223 888 935  363 422 903 935  272 363 422 903  223 888 903 935  223 888 892 903  272 339 363 903  134 223 233 935  143 223 234 903  363 901 903 935  145 233 234 901  223 233 903 935  223 233 234 903  233 234 901 903  233 901 903 935  151 183 188 915  27 183 187 962  67 843 845 1244  128 187 188 914  187 914 915 962  183 187 915 962  33 840 899 1243  33 840 841 899  259 389 406 962  27 183 962 984  151 188 913 915  280 406 915 984  406 915 962 984  407 914 915 962  183 187 188 915  183 915 962 984  33 34 840 1243  284 389 407 914  840 897 899 1243  128 186 187 914  840 858 897 1243  34 840 858 1243  150 158 1014 1091  150 158 159 1091  245 1082 1111 1153  167 169 171 1194  406 407 915 962  280 406 407 915  245 949 1082 1111  686 760 1229 1241  389 406 407 962  389 407 914 962  684 758 760 1228  250 313 366 1016  270 313 368 998  258 366 368 998  530 582 1229 1241  582 1228 1229 1241  258 368 998 1005  313 366 368 998  313 998 1016 1147  250 364 366 1016  12 170 1193 1200  30 31 723 1016  723 998 1016 1147  12 1192 1193 1200  30 723 998 1016  12 169 170 1193  524 594 642 1048  541 628 1111 1174  243 1035 1111 1112  137 243 1048 1174  594 628 642 1048  628 1035 1111 1174  243 1035 1048 1174  243 1035 1111 1174  140 243 1111 1112  628 642 1048 1174  524 594 1021 1048  542 628 1035 1112  628 1035 1111 1112  541 628 642 1174  542 594 628 1035  628 1035 1048 1174  140 238 243 1112  146 216 238 1035  12 169 1192 1193  137 216 243 1048  216 238 243 1035  620 1200 1201 1239  216 243 1035 1048  620 1124 1201 1239  711 1200 1201 1239  146 238 1034 1035  238 243 1035 1112  549 614 615 1143  711 1124 1201 1239  581 686 761 1229  542 594 1021 1035  238 1034 1035 1112  830 873 950 977  581 761 1224 1229  521 600 977 980  148 916 950 980  530 581 582 1229  581 582 1224 1229  916 950 977 980  600 916 977 980  521 599 600 977  533 595 600 916  830 869 873 950  100 595 599 1257  599 600 977 1257  600 916 977 1257  595 600 916 1257  595 599 600 1257  674 747 748 1076  282 357 358 1074  274 320 358 1072  248 320 357 1076  320 1072 1074 1076  320 358 1072 1074  320 357 358 1074  320 357 1074 1076  747 1072 1074 1076  274 358 1051 1072  282 358 1073 1074  667 747 1051 1074  747 1051 1072 1074  358 1051 1072 1074  667 1051 1073 1074  358 1051 1073 1074  274 315 1052 1072  674 748 1076 1096  56 315 1096 1198  673 748 1052 1198  748 1052 1072 1198  315 1052 1072 1198  315 1072 1096 1198  748 1072 1096 1198  56 315 319 1096  748 1072 1076 1096  274 315 320 1072  248 319 320 1076  319 1072 1076 1096  319 320 1072 1076  315 319 320 1072  315 319 1072 1096  798 803 1130 1188  437 496 1130 1181  291 1084 1171 1232  375 1105 1109 1146  803 1130 1181 1188  496 1130 1181 1188  52 291 1084 1171  291 292 1084 1232  436 496 514 1188  437 496 513 1130  167 171 1194 1227  448 513 514 1130  496 514 1130 1188  171 1175 1194 1227  153 169 171 1175  496 513 514 1130  688 739 1028 1211  110 568 610 1180  523 568 613 1211  546 610 613 1028  610 1028 1180 1211  568 610 1180 1211  610 613 1028 1211  568 610 613 1211  739 1028 1180 1211  523 568 1167 1211  110 568 1169 1180  668 739 1167 1169  739 1167 1180 1211  568 1167 1180 1211  739 1167 1169 1180  196 891 1245 1246  </DataArray>
<DataArray  type="UInt32"  Name="offsets"  format="ascii">4 8 12 16 20 24 28 32 36 40 44 48 52 56 60 64 68 72 76 80 84 88 92 96 100 104 108 112 116 120 124 128 132 136 140 144 148 152 156 160 164 168 172 176 180 184 188 192 196 200 204 208 212 216 220 224 228 232 236 240 244 248 252 256 260 264 268 272 276 280 284 288 292 296 300 304 308 312 316 320 324 328 332 336 340 344 348 352 356 360 364 368 372 376 380 384 388 392 396 400 404 408 412 416 420 424 428 432 436 440 444 448 452 456 460 464 468 472 476 480 484 488 492 496 500 504 508 512 516 520 524 528 532 536 540 544 548 552 556 560 564 568 572 576 580 584 588 592 596 600 604 608 612 616 620 624 628 632 636 640 644 648 652 656 660 664 668 672 676 680 684 688 692 696 700 704 708 712 716 720 724 728 732 736 740 744 748 752 756 760 764 768 772 776 780 784 788 792 796 800 804 808 812 816 820 824 828 832 836 840 844 848 852 856 860 864 868 872 876 880 884 888 892 896 900 904 908 912 916 920 924 928 932 936 940 944 948 952 956 960 964 968 972 976 980 984 988 992 996 1000 1004 1008 1012 1016 1020 1024 1028 1032 1036 1040 1044 1048 1052 1056 1060 1064 1068 1072 1076 1080 1084 1088 1092 1096 1100 1104 1108 1112 1116 1120 1124 1128 1132 1136 1140 1144 1148 1152 1156 1160 1164 1168 1172 1176 1180 1184 1188 1192 1196 1200 1204 1208 1212 1216 1220 1224 1228 1232 1236 1240 1244 1248 1252 1256 1260 1264 1268 1272 1276 1280 1284 1288 1292 1296 1300 1304 1308 1312 1316 1320 1324 1328 1332 1336 1340 1344 1348 1352 1356 1360 1364 1368 1372 1376 1380 1384 1388 1392 1396 1400 1404 1408 1412 1416 1420 1424 1428 1432 1436 1440 1444 1448 1452 1456 1460 1464 1468 1472 1476 1480 1484 1488 1492 1496 1500 1504 1508 1512 1516 1520 1524 1528 1532 1536 1540 1544 1548 1552 1556 1560 1564 1568 1572 1576 1580 1584 1588 1592 1596 1600 1604 1608 1612 1616 1620 1624 1628 1632 1636 1640 1644 1648 1652 1656 1660 1664 1668 1672 1676 1680 1684 1688 1692 1696 1700 1704 1708 1712 1716 1720 1724 1728 1732 1736 1740 1744 1748 1752 1756 1760 1764 1768 1772 1776 1780 1784 1788 1792 1796 1800 1804 1808 1812 1816 1820 1824 1828 1832 1836 1840 1844 1848 1852 1856 1860 1864 1868 1872 1876 1880 1884 1888 1892 1896 1900 1904 1908 1912 1916 1920 1924 1928 1932 1936 1940 1944 1948 1952 1956 1960 1964 1968 1972 1976 1980 1984 1988 1992 1996 2000 2004 2008 2012 2016 2020 2024 2028 2032 2036 2040 2044 2048 2052 2056 2060 2064 2068 2072 2076 2080 2084 2088 2092 2096 2100 2104 2108 2112 2116 2120 2124 2128 2132 2136 2140 2144 2148 2152 2156 2160 2164 2168 2172 2176 2180 2184 2188 2192 2196 2200 2204 2208 2212 2216 2220 2224 2228 2232 2236 2240 2244 2248 2252 2256 2260 2264 2268 2272 2276 2280 2284 2288 2292 2296 2300 2304 2308 2312 2316 2320 2324 2328 2332 2336 2340 2344 2348 2352 2356 2360 2364 2368 2372 2376 2380 2384 2388 2392 2396 2400 2404 2408 2412 2416 2420 2424 2428 2432 2436 2440 2444 2448 2452 2456 2460 2464 2468 2472 2476 2480 2484 2488 2492 2496 2500 2504 2508 2512 2516 2520 2524 2528 2532 2536 2540 2544 2548 2552 2556 2560 2564 2568 2572 2576 2580 2584 2588 2592 2596 2600 2604 2608 2612 2616 2620 2624 2628 2632 2636 2640 2644 2648 2652 2656 2660 2664 2668 2672 2676 2680 2684 2688 2692 2696 2700 2704 2708 2712 2716 2720 2724 2728 2732 2736 2740 2744 2748 2752 2756 2760 2764 2768 2772 2776 2780 2784 2788 2792 2796 2800 2804 2808 2812 2816 2820 2824 2828 2832 2836 2840 2844 2848 2852 2856 2860 2864 2868 2872 2876 2880 2884 2888 2892 2896 2900 2904 2908 2912 2916 2920 2924 2928 2932 2936 2940 2944 2948 2952 2956 2960 2964 2968 2972 2976 2980 2984 2988 2992 2996 3000 3004 3008 3012 3016 3020 3024 3028 3032 3036 3040 3044 3048 3052 3056 3060 3064 3068 3072 3076 3080 3084 3088 3092 3096 3100 3104 3108 3112 3116 3120 3124 3128 3132 3136 3140 3144 3148 3152 3156 3160 3164 3168 3172 3176 3180 3184 3188 3192 3196 3200 3204 3208 3212 3216 3220 3224 3228 3232 3236 3240 3244 3248 3252 3256 3260 3264 3268 3272 3276 3280 3284 3288 3292 3296 3300 3304 3308 3312 3316 3320 3324 3328 3332 3336 3340 3344 3348 3352 3356 3360 3364 3368 3372 3376 3380 3384 3388 3392 3396 3400 3404 3408 3412 3416 3420 3424 3428 3432 3436 3440 3444 3448 3452 3456 3460 3464 3468 3472 3476 3480 3484 3488 3492 3496 3500 3504 3508 3512 3516 3520 3524 3528 3532 3536 3540 3544 3548 3552 3556 3560 3564 3568 3572 3576 3580 3584 3588 3592 3596 3600 3604 3608 3612 3616 3620 3624 3628 3632 3636 3640 3644 3648 3652 3656 3660 3664 3668 3672 3676 3680 3684 3688 3692 3696 3700 3704 3708 3712 3716 3720 3724 3728 3732 3736 3740 3744 3748 3752 3756 3760 3764 3768 3772 3776 3780 3784 3788 3792 3796 3800 3804 3808 3812 3816 3820 3824 3828 3832 3836 3840 3844 3848 3852 3856 3860 3864 3868 3872 3876 3880 3884 3888 3892 3896 3900 3904 3908 3912 3916 3920 3924 3928 3932 3936 3940 3944 3948 3952 3956 3960 3964 3968 3972 3976 3980 3984 3988 3992 3996 4000 4004 4008 4012 4016 4020 4024 4028 4032 4036 4040 4044 4048 4052 4056 4060 4064 4068 4072 4076 4080 4084 4088 4092 4096 4100 4104 4108 4112 4116 4120 4124 4128 4132 4136 4140 4144 4148 4152 4156 4160 4164 4168 4172 4176 4180 4184 4188 4192 4196 4200 4204 4208 4212 4216 4220 4224 4228 4232 4236 4240 4244 4248 4252 4256 4260 4264 4268 4272 4276 4280 4284 4288 4292 4296 4300 4304 4308 4312 4316 4320 4324 4328 4332 4336 4340 4344 4348 4352 4356 4360 4364 4368 4372 4376 4380 4384 4388 4392 4396 4400 4404 4408 4412 4416 4420 4424 4428 4432 4436 4440 4444 4448 4452 4456 4460 4464 4468 4472 4476 4480 4484 4488 4492 4496 4500 4504 4508 4512 4516 4520 4524 4528 4532 4536 4540 4544 4548 4552 4556 4560 4564 4568 4572 4576 4580 4584 4588 4592 4596 4600 4604 4608 4612 4616 4620 4624 4628 4632 4636 4640 4644 4648 4652 4656 4660 4664 4668 4672 4676 4680 4684 4688 4692 4696 4700 4704 4708 4712 4716 4720 4724 4728 4732 4736 4740 4744 4748 4752 4756 4760 4764 4768 4772 4776 4780 4784 4788 4792 4796 4800 4804 4808 4812 4816 4820 4824 4828 4832 4836 4840 4844 4848 4852 4856 4860 4864 4868 4872 4876 4880 4884 4888 4892 4896 4900 4904 4908 4912 4916 4920 4924 4928 4932 4936 4940 4944 4948 4952 4956 4960 4964 4968 4972 4976 4980 4984 4988 4992 4996 5000 5004 5008 5012 5016 5020 5024 5028 5032 5036 5040 5044 5048 5052 5056 5060 5064 5068 5072 5076 5080 5084 5088 5092 5096 5100 5104 5108 5112 5116 5120 5124 5128 5132 5136 5140 5144 5148 5152 5156 5160 5164 5168 5172 5176 5180 5184 5188 5192 5196 5200 5204 5208 5212 5216 5220 5224 5228 5232 5236 5240 5244 5248 5252 5256 5260 5264 5268 5272 5276 5280 5284 5288 5292 5296 5300 5304 5308 5312 5316 5320 5324 5328 5332 5336 5340 5344 5348 5352 5356 5360 5364 5368 5372 5376 5380 5384 5388 5392 5396 5400 5404 5408 5412 5416 5420 5424 5428 5432 5436 5440 5444 5448 5452 5456 5460 5464 5468 5472 5476 5480 5484 5488 5492 5496 5500 5504 5508 5512 5516 5520 5524 5528 5532 5536 5540 5544 5548 5552 5556 5560 5564 5568 5572 5576 5580 5584 5588 5592 5596 5600 5604 5608 5612 5616 5620 5624 5628 5632 5636 5640 5644 5648 5652 5656 5660 5664 5668 5672 5676 5680 5684 5688 5692 5696 5700 5704 5708 5712 5716 5720 5724 5728 5732 5736 5740 5744 5748 5752 5756 5760 5764 5768 5772 5776 5780 5784 5788 5792 5796 5800 5804 5808 5812 5816 5820 5824 5828 5832 5836 5840 5844 5848 5852 5856 5860 5864 5868 5872 5876 5880 5884 5888 5892 5896 5900 5904 5908 5912 5916 5920 5924 5928 5932 5936 5940 5944 5948 5952 5956 5960 5964 5968 5972 5976 5980 5984 5988 5992 5996 6000 6004 6008 6012 6016 6020 6024 6028 6032 6036 6040 6044 6048 6052 6056 6060 6064 6068 6072 6076 6080 6084 6088 6092 6096 6100 6104 6108 6112 6116 6120 6124 6128 6132 6136 6140 6144 6148 6152 6156 6160 6164 6168 6172 6176 6180 6184 6188 6192 6196 6200 6204 6208 6212 6216 6220 6224 6228 6232 6236 6240 6244 6248 6252 6256 6260 6264 6268 6272 6276 6280 6284 6288 6292 6296 6300 6304 6308 6312 6316 6320 6324 6328 6332 6336 6340 6344 6348 6352 6356 6360 6364 6368 6372 6376 6380 6384 6388 6392 6396 6400 6404 6408 6412 6416 6420 6424 6428 6432 6436 6440 6444 6448 6452 6456 6460 6464 6468 6472 6476 6480 6484 6488 6492 6496 6500 6504 6508 6512 6516 6520 6524 6528 6532 6536 6540 6544 6548 6552 6556 6560 6564 6568 6572 6576 6580 6584 6588 6592 6596 6600 6604 6608 6612 6616 6620 6624 6628 6632 6636 6640 6644 6648 6652 6656 6660 6664 6668 6672 6676 6680 6684 6688 6692 6696 6700 6704 6708 6712 6716 6720 6724 6728 6732 6736 6740 6744 6748 6752 6756 6760 6764 6768 6772 6776 6780 6784 6788 6792 6796 6800 6804 6808 6812 6816 6820 6824 6828 6832 6836 6840 6844 6848 6852 6856 6860 6864 6868 6872 6876 6880 6884 6888 6892 6896 6900 6904 6908 6912 6916 6920 6924 6928 6932 6936 6940 6944 6948 6952 6956 6960 6964 6968 6972 6976 6980 6984 6988 6992 6996 7000 7004 7008 7012 7016 7020 7024 7028 7032 7036 7040 7044 7048 7052 7056 7060 7064 7068 7072 7076 7080 7084 7088 7092 7096 7100 7104 7108 7112 7116 7120 7124 7128 7132 7136 7140 7144 7148 7152 7156 7160 7164 7168 7172 7176 7180 7184 7188 7192 7196 7200 7204 7208 7212 7216 7220 7224 7228 7232 7236 7240 7244 7248 7252 7256 7260 7264 7268 7272 7276 7280 7284 7288 7292 7296 7300 7304 7308 7312 7316 7320 7324 7328 7332 7336 7340 7344 7348 7352 7356 7360 7364 7368 7372 7376 7380 7384 7388 7392 7396 7400 7404 7408 7412 7416 7420 7424 7428 7432 7436 7440 7444 7448 7452 7456 7460 7464 7468 7472 7476 7480 7484 7488 7492 7496 7500 7504 7508 7512 7516 7520 7524 7528 7532 7536 7540 7544 7548 7552 7556 7560 7564 7568 7572 7576 7580 7584 7588 7592 7596 7600 7604 7608 7612 7616 7620 7624 7628 7632 7636 7640 7644 7648 7652 7656 7660 7664 7668 7672 7676 7680 7684 7688 7692 7696 7700 7704 7708 7712 7716 7720 7724 7728 7732 7736 7740 7744 7748 7752 7756 7760 7764 7768 7772 7776 7780 7784 7788 7792 7796 7800 7804 7808 7812 7816 7820 7824 7828 7832 7836 7840 7844 7848 7852 7856 7860 7864 7868 7872 7876 7880 7884 7888 7892 7896 7900 7904 7908 7912 7916 7920 7924 7928 7932 7936 7940 7944 7948 7952 7956 7960 7964 7968 7972 7976 7980 7984 7988 7992 7996 8000 8004 8008 8012 8016 8020 8024 8028 8032 8036 8040 8044 8048 8052 8056 8060 8064 8068 8072 8076 8080 8084 8088 8092 8096 8100 8104 8108 8112 8116 8120 8124 8128 8132 8136 8140 8144 8148 8152 8156 8160 8164 8168 8172 8176 8180 8184 8188 8192 8196 8200 8204 8208 8212 8216 8220 8224 8228 8232 8236 8240 8244 8248 8252 8256 8260 8264 8268 8272 8276 8280 8284 8288 8292 8296 8300 8304 8308 8312 8316 8320 8324 8328 8332 8336 8340 8344 8348 8352 8356 8360 8364 8368 8372 8376 8380 8384 8388 8392 8396 8400 8404 8408 8412 8416 8420 8424 8428 8432 8436 8440 8444 8448 8452 8456 8460 8464 8468 8472 8476 8480 8484 8488 8492 8496 8500 8504 8508 8512 8516 8520 8524 8528 8532 8536 8540 8544 8548 8552 8556 8560 8564 8568 8572 8576 8580 8584 8588 8592 8596 8600 8604 8608 8612 8616 8620 8624 8628 8632 8636 8640 8644 8648 8652 8656 8660 8664 8668 8672 8676 8680 8684 8688 8692 8696 8700 8704 8708 8712 8716 8720 8724 8728 8732 8736 8740 8744 8748 8752 8756 8760 8764 8768 8772 8776 8780 8784 8788 8792 8796 8800 8804 8808 8812 8816 8820 8824 8828 8832 8836 8840 8844 8848 8852 8856 8860 8864 8868 8872 8876 8880 8884 8888 8892 8896 8900 8904 8908 8912 8916 8920 8924 8928 8932 8936 8940 8944 8948 8952 8956 8960 8964 8968 8972 8976 8980 8984 8988 8992 8996 9000 9004 9008 9012 9016 9020 9024 9028 9032 9036 9040 9044 9048 9052 9056 9060 9064 9068 9072 9076 9080 9084 9088 9092 9096 9100 9104 9108 9112 9116 9120 9124 9128 9132 9136 9140 9144 9148 9152 9156 9160 9164 9168 9172 9176 9180 9184 9188 9192 9196 9200 9204 9208 9212 9216 9220 9224 9228 9232 9236 9240 9244 9248 9252 9256 9260 9264 9268 9272 9276 9280 9284 9288 9292 9296 9300 9304 9308 9312 9316 9320 9324 9328 9332 9336 9340 9344 9348 9352 9356 9360 9364 9368 9372 9376 9380 9384 9388 9392 9396 9400 9404 9408 9412 9416 9420 9424 9428 9432 9436 9440 9444 9448 9452 9456 9460 9464 9468 9472 9476 9480 9484 9488 9492 9496 9500 9504 9508 9512 9516 9520 9524 9528 9532 9536 9540 9544 9548 9552 9556 9560 9564 9568 9572 9576 9580 9584 9588 9592 9596 9600 9604 9608 9612 9616 9620 9624 9628 9632 9636 9640 9644 9648 9652 9656 9660 9664 9668 9672 9676 9680 9684 9688 9692 9696 9700 9704 9708 9712 9716 9720 9724 9728 9732 9736 9740 9744 9748 9752 9756 9760 9764 9768 9772 9776 9780 9784 9788 9792 9796 9800 9804 9808 9812 9816 9820 9824 9828 9832 9836 9840 9844 9848 9852 9856 9860 9864 9868 9872 9876 9880 9884 9888 9892 9896 9900 9904 9908 9912 9916 9920 9924 9928 9932 9936 9940 9944 9948 9952 9956 9960 9964 9968 9972 9976 9980 9984 9988 9992 9996 10000 10004 10008 10012 10016 10020 10024 10028 10032 10036 10040 10044 10048 10052 10056 10060 10064 10068 10072 10076 10080 10084 10088 10092 10096 10100 10104 10108 10112 10116 10120 10124 10128 10132 10136 10140 10144 10148 10152 10156 10160 10164 10168 10172 10176 10180 10184 10188 10192 10196 10200 10204 10208 10212 10216 10220 10224 10228 10232 10236 10240 10244 10248 10252 10256 10260 10264 10268 10272 10276 10280 10284 10288 10292 10296 10300 10304 10308 10312 10316 10320 10324 10328 10332 10336 10340 10344 10348 10352 10356 10360 10364 10368 10372 10376 10380 10384 10388 10392 10396 10400 10404 10408 10412 10416 10420 10424 10428 10432 10436 10440 10444 10448 10452 10456 10460 10464 10468 10472 10476 10480 10484 10488 10492 10496 10500 10504 10508 10512 10516 10520 10524 10528 10532 10536 10540 10544 10548 10552 10556 10560 10564 10568 10572 10576 10580 10584 10588 10592 10596 10600 10604 10608 10612 10616 10620 10624 10628 10632 10636 10640 10644 10648 10652 10656 10660 10664 10668 10672 10676 10680 10684 10688 10692 10696 10700 10704 10708 10712 10716 10720 10724 10728 10732 10736 10740 10744 10748 10752 10756 10760 10764 10768 10772 10776 10780 10784 10788 10792 10796 10800 10804 10808 10812 10816 10820 10824 10828 10832 10836 10840 10844 10848 10852 10856 10860 10864 10868 10872 10876 10880 10884 10888 10892 10896 10900 10904 10908 10912 10916 10920 10924 10928 10932 10936 10940 10944 10948 10952 10956 10960 10964 10968 10972 10976 10980 10984 10988 10992 10996 11000 11004 11008 11012 11016 11020 11024 11028 11032 11036 11040 11044 11048 11052 11056 11060 11064 11068 11072 11076 11080 11084 11088 11092 11096 11100 11104 11108 11112 11116 11120 11124 11128 11132 11136 11140 11144 11148 11152 11156 11160 11164 11168 11172 11176 11180 11184 11188 11192 11196 11200 11204 11208 11212 11216 11220 11224 11228 11232 11236 11240 11244 11248 11252 11256 11260 11264 11268 11272 11276 11280 11284 11288 11292 11296 11300 11304 11308 11312 11316 11320 11324 11328 11332 11336 11340 11344 11348 11352 11356 11360 11364 11368 11372 11376 11380 11384 11388 11392 11396 11400 11404 11408 11412 11416 11420 11424 11428 11432 11436 11440 11444 11448 11452 11456 11460 11464 11468 11472 11476 11480 11484 11488 11492 11496 11500 11504 11508 11512 11516 11520 11524 11528 11532 11536 11540 11544 11548 11552 11556 11560 11564 11568 11572 11576 11580 11584 11588 11592 11596 11600 11604 11608 11612 11616 11620 11624 11628 11632 11636 11640 11644 11648 11652 11656 11660 11664 11668 11672 11676 11680 11684 11688 11692 11696 11700 11704 11708 11712 11716 11720 11724 11728 11732 11736 11740 11744 11748 11752 11756 11760 11764 11768 11772 11776 11780 11784 11788 11792 11796 11800 11804 11808 11812 11816 11820 11824 11828 11832 11836 11840 11844 11848 11852 11856 11860 11864 11868 11872 11876 11880 11884 11888 11892 11896 11900 11904 11908 11912 11916 11920 11924 11928 11932 11936 11940 11944 11948 11952 11956 11960 11964 11968 11972 11976 11980 11984 11988 11992 11996 12000 12004 12008 12012 12016 12020 12024 12028 12032 12036 12040 12044 12048 12052 12056 12060 12064 12068 12072 12076 12080 12084 12088 12092 12096 12100 12104 12108 12112 12116 12120 12124 12128 12132 12136 12140 12144 12148 12152 12156 12160 12164 12168 12172 12176 12180 12184 12188 12192 12196 12200 12204 12208 12212 12216 12220 12224 12228 12232 12236 12240 12244 12248 12252 12256 12260 12264 12268 12272 12276 12280 12284 12288 12292 12296 12300 12304 12308 12312 12316 12320 12324 12328 12332 12336 12340 12344 12348 12352 12356 12360 12364 12368 12372 12376 12380 12384 12388 12392 12396 12400 12404 12408 12412 12416 12420 12424 12428 12432 12436 12440 12444 12448 12452 12456 12460 12464 12468 12472 12476 12480 12484 12488 12492 12496 12500 12504 12508 12512 12516 12520 12524 12528 12532 12536 12540 12544 12548 12552 12556 12560 12564 12568 12572 12576 12580 12584 12588 12592 12596 12600 12604 12608 12612 12616 12620 12624 12628 12632 12636 12640 12644 12648 12652 12656 12660 12664 12668 12672 12676 12680 12684 12688 12692 12696 12700 12704 12708 12712 12716 12720 12724 12728 12732 12736 12740 12744 12748 12752 12756 12760 12764 12768 12772 12776 12780 12784 12788 12792 12796 12800 12804 12808 12812 12816 12820 12824 12828 12832 12836 12840 12844 12848 12852 12856 12860 12864 12868 12872 12876 12880 12884 12888 12892 12896 12900 12904 12908 12912 12916 12920 12924 12928 12932 12936 12940 12944 12948 12952 12956 12960 12964 12968 12972 12976 12980 12984 12988 12992 12996 13000 13004 13008 13012 13016 13020 13024 13028 13032 13036 13040 13044 13048 13052 13056 13060 13064 13068 13072 13076 13080 13084 13088 13092 13096 13100 13104 13108 13112 13116 13120 13124 13128 13132 13136 13140 13144 13148 13152 13156 13160 13164 13168 13172 13176 13180 13184 13188 13192 13196 13200 13204 13208 13212 13216 13220 13224 13228 13232 13236 13240 13244 13248 13252 13256 13260 13264 13268 13272 13276 13280 13284 13288 13292 13296 13300 13304 13308 13312 13316 13320 13324 13328 13332 13336 13340 13344 13348 13352 13356 13360 13364 13368 13372 13376 13380 13384 13388 13392 13396 13400 13404 13408 13412 13416 13420 13424 13428 13432 13436 13440 13444 13448 13452 13456 13460 13464 13468 13472 13476 13480 13484 13488 13492 13496 13500 13504 13508 13512 13516 13520 13524 13528 13532 13536 13540 13544 13548 13552 13556 13560 13564 13568 13572 13576 13580 13584 13588 13592 13596 13600 13604 13608 13612 13616 13620 13624 13628 13632 13636 13640 13644 13648 13652 13656 13660 13664 13668 13672 13676 13680 13684 13688 13692 13696 13700 13704 13708 13712 13716 13720 13724 13728 13732 13736 13740 13744 13748 13752 13756 13760 13764 13768 13772 13776 13780 13784 13788 13792 13796 13800 13804 13808 13812 13816 13820 13824 13828 13832 13836 13840 13844 13848 13852 13856 13860 13864 13868 13872 13876 13880 13884 13888 13892 13896 13900 13904 13908 13912 13916 13920 13924 13928 13932 13936 13940 13944 13948 13952 13956 13960 13964 13968 13972 13976 13980 13984 13988 13992 13996 14000 14004 14008 14012 14016 14020 14024 14028 14032 14036 14040 14044 14048 14052 14056 14060 14064 14068 14072 14076 14080 14084 14088 14092 14096 14100 14104 14108 14112 14116 14120 14124 14128 14132 14136 14140 14144 14148 14152 14156 14160 14164 14168 14172 14176 14180 14184 14188 14192 14196 14200 14204 14208 14212 14216 14220 14224 14228 14232 14236 14240 14244 14248 14252 14256 14260 14264 14268 14272 14276 14280 14284 14288 14292 14296 14300 14304 14308 14312 14316 14320 14324 14328 14332 14336 14340 14344 14348 14352 14356 14360 14364 14368 14372 14376 14380 14384 14388 14392 14396 14400 14404 14408 14412 14416 14420 14424 14428 14432 14436 14440 14444 14448 14452 14456 14460 14464 14468 14472 14476 14480 14484 14488 14492 14496 14500 14504 14508 14512 14516 14520 14524 14528 14532 14536 14540 14544 14548 14552 14556 14560 14564 14568 14572 14576 14580 14584 14588 14592 14596 14600 14604 14608 14612 14616 14620 14624 14628 14632 14636 14640 14644 14648 14652 14656 14660 14664 14668 14672 14676 14680 14684 14688 14692 14696 14700 14704 14708 14712 14716 14720 14724 14728 14732 14736 14740 14744 14748 14752 14756 14760 14764 14768 14772 14776 14780 14784 14788 14792 14796 14800 14804 14808 14812 14816 14820 14824 14828 14832 14836 14840 14844 14848 14852 14856 14860 14864 14868 14872 14876 14880 14884 14888 14892 14896 14900 14904 14908 14912 14916 14920 14924 14928 14932 14936 14940 14944 14948 14952 14956 14960 14964 14968 14972 14976 14980 14984 14988 14992 14996 15000 15004 15008 15012 15016 15020 15024 15028 15032 15036 15040 15044 15048 15052 15056 15060 15064 15068 15072 15076 15080 15084 15088 15092 15096 15100 15104 15108 15112 15116 15120 15124 15128 15132 15136 15140 15144 15148 15152 15156 15160 15164 15168 15172 15176 15180 15184 15188 15192 15196 15200 15204 15208 15212 15216 15220 15224 15228 15232 15236 15240 15244 15248 15252 15256 15260 15264 15268 15272 15276 15280 15284 15288 15292 15296 15300 15304 15308 15312 15316 15320 15324 15328 15332 15336 15340 15344 15348 15352 15356 15360 15364 15368 15372 15376 15380 15384 15388 15392 15396 15400 15404 15408 15412 15416 15420 15424 15428 15432 15436 15440 15444 15448 15452 15456 15460 15464 15468 15472 15476 15480 15484 15488 15492 15496 15500 15504 15508 15512 15516 15520 15524 15528 15532 15536 15540 15544 15548 15552 15556 15560 15564 15568 15572 15576 15580 15584 15588 15592 15596 15600 15604 15608 15612 15616 15620 15624 15628 15632 15636 15640 15644 15648 15652 15656 15660 15664 15668 15672 15676 15680 15684 15688 15692 15696 15700 15704 15708 15712 15716 15720 15724 15728 15732 15736 15740 15744 15748 15752 15756 15760 15764 15768 15772 15776 15780 15784 15788 15792 15796 15800 15804 15808 15812 15816 15820 15824 15828 15832 15836 15840 15844 15848 15852 15856 15860 15864 15868 15872 15876 15880 15884 15888 15892 15896 15900 15904 15908 15912 15916 15920 15924 15928 15932 15936 15940 15944 15948 15952 15956 15960 15964 15968 15972 15976 15980 15984 15988 15992 15996 16000 16004 16008 16012 16016 16020 16024 16028 16032 16036 16040 16044 16048 16052 16056 16060 16064 16068 16072 16076 16080 16084 16088 16092 16096 16100 16104 16108 16112 16116 16120 16124 16128 16132 16136 16140 16144 16148 16152 16156 16160 16164 16168 16172 16176 16180 16184 16188 16192 16196 16200 16204 16208 16212 16216 16220 16224 16228 16232 16236 16240 16244 16248 16252 16256 16260 16264 16268 16272 16276 16280 16284 16288 16292 16296 16300 16304 16308 16312 16316 16320 16324 16328 16332 16336 16340 16344 16348 16352 16356 16360 16364 16368 16372 16376 16380 16384 16388 16392 16396 16400 16404 16408 16412 16416 16420 16424 16428 16432 16436 16440 16444 16448 16452 16456 16460 16464 16468 16472 16476 16480 16484 16488 16492 16496 16500 16504 16508 16512 16516 16520 16524 16528 16532 16536 16540 16544 16548 16552 16556 16560 16564 16568 16572 16576 16580 16584 16588 16592 16596 16600 16604 16608 16612 16616 16620 16624 16628 16632 16636 16640 16644 16648 16652 16656 16660 16664 16668 16672 16676 16680 16684 16688 16692 16696 16700 16704 16708 16712 16716 16720 16724 16728 16732 16736 16740 16744 16748 16752 16756 16760 16764 16768 16772 16776 16780 16784 16788 16792 16796 16800 16804 16808 16812 16816 16820 16824 16828 16832 16836 16840 16844 16848 16852 16856 16860 16864 16868 16872 16876 16880 16884 16888 16892 16896 16900 16904 16908 16912 16916 16920 16924 16928 16932 16936 16940 16944 16948 16952 16956 16960 16964 16968 16972 16976 16980 16984 16988 16992 16996 17000 17004 17008 17012 17016 17020 17024 17028 17032 17036 17040 17044 17048 17052 17056 17060 17064 17068 17072 17076 17080 17084 17088 17092 17096 17100 17104 17108 17112 17116 17120 17124 17128 17132 17136 17140 17144 17148 17152 17156 17160 17164 17168 17172 17176 17180 17184 17188 17192 17196 17200 17204 17208 17212 17216 17220 17224 17228 17232 17236 17240 17244 17248 17252 17256 17260 17264 17268 17272 17276 17280 17284 17288 17292 17296 17300 17304 17308 17312 17316 17320 17324 17328 17332 17336 17340 17344 17348 17352 17356 17360 17364 17368 17372 17376 17380 17384 17388 17392 17396 17400 17404 17408 17412 17416 17420 17424 17428 17432 17436 17440 17444 17448 17452 17456 17460 17464 17468 17472 17476 17480 17484 17488 17492 17496 17500 17504 17508 17512 17516 17520 17524 17528 17532 17536 17540 17544 17548 17552 17556 17560 17564 17568 17572 17576 17580 17584 17588 17592 17596 17600 17604 17608 17612 17616 17620 17624 17628 17632 17636 17640 17644 17648 17652 17656 17660 17664 17668 17672 17676 17680 17684 17688 17692 17696 17700 17704 17708 17712 17716 17720 17724 17728 17732 17736 17740 17744 17748 17752 17756 17760 17764 17768 17772 17776 17780 17784 17788 17792 17796 17800 17804 17808 17812 17816 17820 17824 17828 17832 17836 17840 17844 17848 17852 17856 17860 17864 17868 17872 17876 17880 17884 17888 17892 17896 17900 17904 17908 17912 17916 17920 17924 17928 17932 17936 17940 17944 17948 17952 17956 17960 17964 17968 17972 17976 17980 17984 17988 17992 17996 18000 18004 18008 18012 18016 18020 18024 18028 18032 18036 18040 18044 18048 18052 18056 18060 18064 18068 18072 18076 18080 18084 18088 18092 18096 18100 18104 18108 18112 18116 18120 18124 18128 18132 18136 18140 18144 18148 18152 18156 18160 18164 18168 18172 18176 18180 18184 18188 18192 18196 18200 18204 18208 18212 18216 18220 18224 18228 18232 18236 18240 18244 18248 18252 18256 18260 18264 18268 18272 18276 18280 18284 18288 18292 18296 18300 18304 18308 18312 18316 18320 18324 18328 18332 18336 18340 18344 18348 18352 18356 18360 18364 18368 18372 18376 18380 18384 18388 18392 18396 18400 18404 18408 18412 18416 18420 18424 18428 18432 18436 18440 18444 18448 18452 18456 18460 18464 18468 18472 18476 18480 18484 18488 18492 18496 18500 18504 18508 18512 18516 18520 18524 18528 18532 18536 18540 18544 18548 18552 18556 18560 18564 18568 18572 18576 18580 18584 18588 18592 18596 18600 18604 18608 18612 18616 18620 18624 18628 18632 18636 18640 18644 18648 18652 18656 18660 18664 18668 18672 18676 18680 18684 18688 18692 18696 18700 18704 18708 18712 18716 18720 18724 18728 18732 18736 18740 18744 18748 18752 18756 18760 18764 18768 18772 18776 18780 18784 18788 18792 18796 18800 18804 18808 18812 18816 18820 18824 18828 18832 18836 18840 18844 18848 18852 18856 18860 18864 18868 18872 18876 18880 18884 18888 18892 18896 18900 18904 18908 18912 18916 18920 18924 18928 18932 18936 18940 18944 18948 18952 18956 18960 18964 18968 18972 18976 18980 18984 18988 18992 18996 19000 19004 19008 19012 19016 19020 19024 19028 19032 19036 19040 19044 19048 19052 19056 19060 19064 19068 19072 19076 19080 19084 19088 19092 19096 19100 19104 19108 19112 19116 19120 19124 19128 19132 19136 19140 19144 19148 19152 19156 19160 19164 19168 19172 19176 19180 19184 19188 19192 19196 19200 19204 19208 19212 19216 19220 19224 19228 19232 19236 19240 19244 19248 19252 19256 19260 19264 19268 19272 19276 19280 19284 19288 19292 19296 19300 19304 19308 19312 19316 19320 19324 19328 19332 19336 19340 19344 19348 19352 19356 19360 19364 19368 19372 19376 19380 19384 19388 </DataArray>
<DataArray  type="UInt8"  Name="types"  format="ascii">10 10 10 10 10 10 10 10 10 10 10 10 10 10 10 10 10 10 10 10 10 10 10 10 10 10 10 10 10 10 10 10 10 10 10 10 10 10 10 10 10 10 10 10 10 10 10 10 10 10 10 10 10 10 10 10 10 10 10 10 10 10 10 10 10 10 10 10 10 10 10 10 10 10 10 10 10 10 10 10 10 10 10 10 10 10 10 10 10 10 10 10 10 10 10 10 10 10 10 10 10 10 10 10 10 10 10 10 10 10 10 10 10 10 10 10 10 10 10 10 10 10 10 10 10 10 10 10 10 10 10 10 10 10 10 10 10 10 10 10 10 10 10 10 10 10 10 10 10 10 10 10 10 10 10 10 10 10 10 10 10 10 10 10 10 10 10 10 10 10 10 10 10 10 10 10 10 10 10 10 10 10 10 10 10 10 10 10 10 10 10 10 10 10 10 10 10 10 10 10 10 10 10 10 10 10 10 10 10 10 10 10 10 10 10 10 10 10 10 10 10 10 10 10 10 10 10 10 10 10 10 10 10 10 10 10 10 10 10 10 10 10 10 10 10 10 10 10 10 10 10 10 10 10 10 10 10 10 10 10 10 10 10 10 10 10 10 10 10 10 10 10 10 10 10 10 10 10 10 10 10 10 10 10 10 10 10 10 10 10 10 10 10 10 10 10 10 10 10 10 10 10 10 10 10 10 10 10 10 10 10 10 10 10 10 10 10 10 10 10 10 10 10 10 10 10 10 10 10 10 10 10 10 10 10 10 10 10 10 10 10 10 10 10 10 10 10 10 10 10 10 10 10 10 10 10 10 10 10 10 10 10 10 10 10 10 10 10 10 10 10 10 10 10 10 10 10 10 10 10 10 10 10 10 10 10 10 10 10 10 10 10 10 10 10 10 10 10 10 10 10 10 10 10 10 10 10 10 10 10 10 10 10 10 10 10 10 10 10 10 10 10 10 10 10 10 10 10 10 10 10 10 10 10 10 10 10 10 10 10 10 10 10 10 10 10 10 10 10 10 10 10 10 10 10 10 10 10 10 10 10 10 10 10 10 10 10 10 10 10 10 10 10 10 10 10 10 10 10 10 10 10 10 10 10 10 10 10 10 10 10 10 10 10 10 10 10 10 10 10 10 10 10 10 10 10 10 10 10 10 10 10 10 10 10 10 10 10 10 10 10 10 10 10 10 10 10 10 10 10 10 10 10 10 10 10 10 10 10 10 10 10 10 10 10 10 10 10 10 10 10 10 10 10 10 10 10 10 10 10 10 10 10 10 10 10 10 10 10 10 10 10 10 10 10 10 10 10 10 10 10 10 10 10 10 10 10 10 10 10 10 10 10 10 10 10 10 10 10 10 10 10 10 10 10 10 10 10 10 10 10 10 10 10 10 10 10 10 10 10 10 10 10 10 10 10 10 10 10 10 10 10 10 10 10 10 10 10 10 10 10 10 10 10 10 10 10 10 10 10 10 10 10 10 10 10 10 10 10 10 10 10 10 10 10 10 10 10 10 10 10 10 10 10 10 10 10 10 10 10 10 10 10 10 10 10 10 10 10 10 10 10 10 10 10 10 10 10 10 10 10 10 10 10 10 10 10 10 10 10 10 10 10 10 10 10 10 10 10 10 10 10 10 10 10 10 10 10 10 10 10 10 10 10 10 10 10 10 10 10 10 10 10 10 10 10 10 10 10 10 10 10 10 10 10 10 10 10 10 10 10 10 10 10 10 10 10 10 10 10 10 10 10 10 10 10 10 10 10 10 10 10 10 10 10 10 10 10 10 10 10 10 10 10 10 10 10 10 10 10 10 10 10 10 10 10 10 10 10 10 10 10 10 10 10 10 10 10 10 10 10 10 10 10 10 10 10 10 10 10 10 10 10 10 10 10 10 10 10 10 10 10 10 10 10 10 10 10 10 10 10 10 10 10 10 10 10 10 10 10 10 10 10 10 10 10 10 10 10 10 10 10 10 10 10 10 10 10 10 10 10 10 10 10 10 10 10 10 10 10 10 10 10 10 10 10 10 10 10 10 10 10 10 10 10 10 10 10 10 10 10 10 10 10 10 10 10 10 10 10 10 10 10 10 10 10 10 10 10 10 10 10 10 10 10 10 10 10 10 10 10 10 10 10 10 10 10 10 10 10 10 10 10 10 10 10 10 10 10 10 10 10 10 10 10 10 10 10 10 10 10 10 10 10 10 10 10 10 10 10 10 10 10 10 10 10 10 10 10 10 10 10 10 10 10 10 10 10 10 10 10 10 10 10 10 10 10 10 10 10 10 10 10 10 10 10 10 10 10 10 10 10 10 10 10 10 10 10 10 10 10 10 10 10 10 10 10 10 10 10 10 10 10 10 10 10 10 10 10 10 10 10 10 10 10 10 10 10 10 10 10 10 10 10 10 10 10 10 10 10 10 10 10 10 10 10 10 10 10 10 10 10 10 10 10 10 10 10 10 10 10 10 10 10 10 10 10 10 10 10 10 10 10 10 10 10 10 10 10 10 10 10 10 10 10 10 10 10 10 10 10 10 10 10 10 10 10 10 10 10 10 10 10 10 10 10 10 10 10 10 10 10 10 10 10 10 10 10 10 10 10 10 10 10 10 10 10 10 10 10 10 10 10 10 10 10 10 10 10 10 10 10 10 10 10 10 10 10 10 10 10 10 10 10 10 10 10 10 10 10 10 10 10 10 10 10 10 10 10 10 10 10 10 10 10 10 10 10 10 10 10 10 10 10 10 10 10 10 10 10 10 10 10 10 10 10 10 10 10 10 10 10 10 10 10 10 10 10 10 10 10 10 10 10 10 10 10 10 10 10 10 10 10 10 10 10 10 10 10 10 10 10 10 10 10 10 10 10 10 10 10 10 10 10 10 10 10 10 10 10 10 10 10 10 10 10 10 10 10 10 10 10 10 10 10 10 10 10 10 10 10 10 10 10 10 10 10 10 10 10 10 10 10 10 10 10 10 10 10 10 10 10 10 10 10 10 10 10 10 10 10 10 10 10 10 10 10 10 10 10 10 10 10 10 10 10 10 10 10 10 10 10 10 10 10 10 10 10 10 10 10 10 10 10 10 10 10 10 10 10 10 10 10 10 10 10 10 10 10 10 10 10 10 10 10 10 10 10 10 10 10 10 10 10 10 10 10 10 10 10 10 10 10 10 10 10 10 10 10 10 10 10 10 10 10 10 10 10 10 10 10 10 10 10 10 10 10 10 10 10 10 10 10 10 10 10 10 10 10 10 10 10 10 10 10 10 10 10 10 10 10 10 10 10 10 10 10 10 10 10 10 10 10 10 10 10 10 10 10 10 10 10 10 10 10 10 10 10 10 10 10 10 10 10 10 10 10 10 10 10 10 10 10 10 10 10 10 10 10 10 10 10 10 10 10 10 10 10 10 10 10 10 10 10 10 10 10 10 10 10 10 10 10 10 10 10 10 10 10 10 10 10 10 10 10 10 10 10 10 10 10 10 10 10 10 10 10 10 10 10 10 10 10 10 10 10 10 10 10 10 10 10 10 10 10 10 10 10 10 10 10 10 10 10 10 10 10 10 10 10 10 10 10 10 10 10 10 10 10 10 10 10 10 10 10 10 10 10 10 10 10 10 10 10 10 10 10 10 10 10 10 10 10 10 10 10 10 10 10 10 10 10 10 10 10 10 10 10 10 10 10 10 10 10 10 10 10 10 10 10 10 10 10 10 10 10 10 10 10 10 10 10 10 10 10 10 10 10 10 10 10 10 10 10 10 10 10 10 10 10 10 10 10 10 10 10 10 10 10 10 10 10 10 10 10 10 10 10 10 10 10 10 10 10 10 10 10 10 10 10 10 10 10 10 10 10 10 10 10 10 10 10 10 10 10 10 10 10 10 10 10 10 10 10 10 10 10 10 10 10 10 10 10 10 10 10 10 10 10 10 10 10 10 10 10 10 10 10 10 10 10 10 10 10 10 10 10 10 10 10 10 10 10 10 10 10 10 10 10 10 10 10 10 10 10 10 10 10 10 10 10 10 10 10 10 10 10 10 10 10 10 10 10 10 10 10 10 10 10 10 10 10 10 10 10 10 10 10 10 10 10 10 10 10 10 10 10 10 10 10 10 10 10 10 10 10 10 10 10 10 10 10 10 10 10 10 10 10 10 10 10 10 10 10 10 10 10 10 10 10 10 10 10 10 10 10 10 10 10 10 10 10 10 10 10 10 10 10 10 10 10 10 10 10 10 10 10 10 10 10 10 10 10 10 10 10 10 10 10 10 10 10 10 10 10 10 10 10 10 10 10 10 10 10 10 10 10 10 10 10 10 10 10 10 10 10 10 10 10 10 10 10 10 10 10 10 10 10 10 10 10 10 10 10 10 10 10 10 10 10 10 10 10 10 10 10 10 10 10 10 10 10 10 10 10 10 10 10 10 10 10 10 10 10 10 10 10 10 10 10 10 10 10 10 10 10 10 10 10 10 10 10 10 10 10 10 10 10 10 10 10 10 10 10 10 10 10 10 10 10 10 10 10 10 10 10 10 10 10 10 10 10 10 10 10 10 10 10 10 10 10 10 10 10 10 10 10 10 10 10 10 10 10 10 10 10 10 10 10 10 10 10 10 10 10 10 10 10 10 10 10 10 10 10 10 10 10 10 10 10 10 10 10 10 10 10 10 10 10 10 10 10 10 10 10 10 10 10 10 10 10 10 10 10 10 10 10 10 10 10 10 10 10 10 10 10 10 10 10 10 10 10 10 10 10 10 10 10 10 10 10 10 10 10 10 10 10 10 10 10 10 10 10 10 10 10 10 10 10 10 10 10 10 10 10 10 10 10 10 10 10 10 10 10 10 10 10 10 10 10 10 10 10 10 10 10 10 10 10 10 10 10 10 10 10 10 10 10 10 10 10 10 10 10 10 10 10 10 10 10 10 10 10 10 10 10 10 10 10 10 10 10 10 10 10 10 10 10 10 10 10 10 10 10 10 10 10 10 10 10 10 10 10 10 10 10 10 10 10 10 10 10 10 10 10 10 10 10 10 10 10 10 10 10 10 10 10 10 10 10 10 10 10 10 10 10 10 10 10 10 10 10 10 10 10 10 10 10 10 10 10 10 10 10 10 10 10 10 10 10 10 10 10 10 10 10 10 10 10 10 10 10 10 10 10 10 10 10 10 10 10 10 10 10 10 10 10 10 10 10 10 10 10 10 10 10 10 10 10 10 10 10 10 10 10 10 10 10 10 10 10 10 10 10 10 10 10 10 10 10 10 10 10 10 10 10 10 10 10 10 10 10 10 10 10 10 10 10 10 10 10 10 10 10 10 10 10 10 10 10 10 10 10 10 10 10 10 10 10 10 10 10 10 10 10 10 10 10 10 10 10 10 10 10 10 10 10 10 10 10 10 10 10 10 10 10 10 10 10 10 10 10 10 10 10 10 10 10 10 10 10 10 10 10 10 10 10 10 10 10 10 10 10 10 10 10 10 10 10 10 10 10 10 10 10 10 10 10 10 10 10 10 10 10 10 10 10 10 10 10 10 10 10 10 10 10 10 10 10 10 10 10 10 10 10 10 10 10 10 10 10 10 10 10 10 10 10 10 10 10 10 10 10 10 10 10 10 10 10 10 10 10 10 10 10 10 10 10 10 10 10 10 10 10 10 10 10 10 10 10 10 10 10 10 10 10 10 10 10 10 10 10 10 10 10 10 10 10 10 10 10 10 10 10 10 10 10 10 10 10 10 10 10 10 10 10 10 10 10 10 10 10 10 10 10 10 10 10 10 10 10 10 10 10 10 10 10 10 10 10 10 10 10 10 10 10 10 10 10 10 10 10 10 10 10 10 10 10 10 10 10 10 10 10 10 10 10 10 10 10 10 10 10 10 10 10 10 10 10 10 10 10 10 10 10 10 10 10 10 10 10 10 10 10 10 10 10 10 10 10 10 10 10 10 10 10 10 10 10 10 10 10 10 10 10 10 10 10 10 10 10 10 10 10 10 10 10 10 10 10 10 10 10 10 10 10 10 10 10 10 10 10 10 10 10 10 10 10 10 10 10 10 10 10 10 10 10 10 10 10 10 10 10 10 10 10 10 10 10 10 10 10 10 10 10 10 10 10 10 10 10 10 10 10 10 10 10 10 10 10 10 10 10 10 10 10 10 10 10 10 10 10 10 10 10 10 10 10 10 10 10 10 10 10 10 10 10 10 10 10 10 10 10 10 10 10 10 10 10 10 10 10 10 10 10 10 10 10 10 10 10 10 10 10 10 10 10 10 10 10 10 10 10 10 10 10 10 10 10 10 10 10 10 10 10 10 10 10 10 10 10 10 10 10 10 10 10 10 10 10 10 10 10 10 10 10 10 10 10 10 10 10 10 10 10 10 10 10 10 10 10 10 10 10 10 10 10 10 10 10 10 10 10 10 10 10 10 10 10 10 10 10 10 10 10 10 10 10 10 10 10 10 10 10 10 10 10 10 10 10 10 10 10 10 10 10 10 10 10 10 10 10 10 10 10 10 10 10 10 10 10 10 10 10 10 10 10 10 10 10 10 10 10 10 10 10 10 10 10 10 10 10 10 10 10 10 10 10 10 10 10 10 10 10 10 10 10 10 10 10 10 10 10 10 10 10 10 10 10 10 10 10 10 10 10 10 10 10 10 10 10 10 10 10 10 10 10 10 10 10 10 10 10 10 10 10 10 10 10 10 10 10 10 10 10 10 10 10 10 10 10 10 10 10 10 10 10 10 10 10 10 10 10 10 10 10 10 10 10 10 10 10 10 10 10 10 10 10 10 10 10 10 10 10 10 10 10 10 10 10 10 10 10 10 10 10 10 10 10 10 10 10 10 10 10 10 10 10 10 10 10 10 10 10 10 10 10 10 10 10 10 10 10 10 10 10 10 10 10 10 10 10 10 10 10 10 10 10 10 10 10 10 10 10 10 10 10 10 10 10 10 10 10 10 10 10 10 10 10 10 10 10 10 10 10 10 10 10 10 10 10 10 10 10 10 10 10 10 10 10 10 10 10 10 10 10 10 10 10 10 10 10 10 10 10 10 10 10 10 10 10 10 10 10 10 10 10 10 10 10 10 10 10 10 10 10 10 10 10 10 10 10 10 10 10 10 10 10 10 10 10 10 10 10 10 10 10 10 10 10 10 10 10 10 10 10 10 10 10 10 10 10 10 10 10 10 10 10 10 10 10 10 10 10 10 10 10 10 10 10 10 10 10 10 10 10 10 10 10 10 10 10 10 10 10 10 10 10 10 10 10 10 10 10 10 10 10 10 10 10 10 10 10 10 10 10 10 10 10 10 10 10 10 10 10 10 10 10 10 10 10 10 10 10 10 10 10 10 10 10 10 10 10 10 10 10 10 10 10 10 10 10 10 10 10 10 10 10 10 10 10 10 10 10 10 10 10 10 10 10 10 10 10 10 10 10 10 10 10 10 10 10 10 10 10 10 10 10 10 10 10 10 10 10 10 10 10 10 10 10 10 10 10 10 10 10 10 10 10 10 10 10 10 10 10 10 10 10 10 10 10 10 10 10 10 10 10 10 10 10 10 10 10 10 10 10 10 10 10 10 10 10 10 10 10 10 10 10 10 10 10 10 10 10 10 10 10 10 10 10 10 10 10 10 10 10 10 10 10 10 10 10 10 10 10 10 10 10 10 10 10 10 10 10 10 10 10 10 10 10 10 10 10 10 10 10 10 10 10 10 10 10 10 10 10 10 10 10 10 10 10 10 10 10 10 10 10 10 10 10 10 10 10 10 10 10 10 10 10 10 10 10 10 10 10 10 10 10 10 10 10 10 10 10 10 10 10 10 10 10 10 10 10 10 10 10 10 10 10 10 10 10 10 10 10 10 10 10 10 10 10 10 10 10 10 10 10 10 10 10 10 10 10 10 10 10 10 10 10 10 10 10 10 10 10 10 10 10 10 10 10 10 10 10 10 10 10 10 10 10 10 10 10 10 10 10 10 10 10 10 10 10 10 10 10 10 10 10 10 10 10 10 10 10 10 10 10 10 10 10 10 10 10 10 10 10 10 10 10 10 10 10 10 10 10 10 10 10 10 10 10 10 10 10 10 10 10 10 10 10 10 10 10 10 10 10 10 10 10 10 10 10 10 10 10 10 10 10 10 10 10 10 10 10 10 10 10 10 10 10 10 10 10 10 10 10 10 10 10 10 10 10 10 10 10 10 10 10 10 10 10 10 10 10 10 10 10 10 10 10 10 10 10 10 10 10 10 10 10 10 10 10 10 10 10 10 10 10 10 10 10 10 10 10 10 10 10 10 10 10 10 10 10 10 10 10 10 10 10 10 10 10 10 10 10 10 10 10 10 10 10 10 10 10 10 10 10 10 10 10 10 10 10 10 10 10 10 10 10 10 10 10 10 10 10 10 10 10 10 10 10 10 10 10 10 10 10 10 10 10 10 10 10 10 10 10 10 10 10 10 10 10 10 10 10 10 10 10 10 10 10 10 10 10 10 10 10 10 10 10 10 10 10 10 10 10 10 10 10 10 10 10 10 10 10 10 10 10 10 10 10 10 10 10 10 10 10 10 10 10 10 10 10 10 10 10 10 10 10 10 10 10 10 10 10 10 10 10 10 10 10 10 10 10 10 10 10 10 10 10 10 10 10 10 10 10 10 10 10 10 10 10 10 10 10 10 10 10 10 10 10 10 10 10 10 10 10 10 10 10 10 10 10 10 10 10 10 10 10 10 10 10 10 10 10 10 10 10 10 10 10 10 10 10 10 10 10 10 10 10 10 10 10 10 10 10 10 10 10 10 10 10 10 10 10 10 10 10 10 10 10 10 10 10 10 10 10 10 10 10 10 10 10 10 10 10 10 10 10 10 10 10 10 10 10 10 10 10 10 10 10 10 10 10 10 10 10 10 10 10 10 10 10 10 10 10 10 10 10 10 10 10 10 10 10 10 10 10 10 10 10 10 10 10 10 10 10 10 10 10 10 10 10 10 10 10 10 10 10 10 10 10 10 10 10 10 10 10 10 10 10 10 10 10 10 10 10 10 10 10 10 10 10 10 10 10 10 10 10 10 10 10 10 10 10 10 10 10 10 10 10 10 10 10 10 10 10 10 10 10 10 10 10 10 10 10 10 10 10 10 10 10 10 10 10 10 10 10 10 10 10 10 10 10 10 10 10 10 10 10 10 10 10 10 10 10 10 10 10 10 10 10 10 10 10 10 10 10 10 10 10 10 10 10 10 10 10 10 10 10 10 10 10 10 10 10 10 10 10 10 10 10 10 10 10 10 10 10 10 10 10 10 10 10 10 10 10 10 10 10 10 10 10 10 10 10 10 10 10 10 10 10 10 10 10 10 10 10 10 10 10 10 10 10 10 10 10 10 10 10 10 10 10 10 10 10 10 10 10 10 10 10 10 10 10 10 10 10 10 10 10 10 10 10 10 10 10 10 10 10 10 10 10 10 10 10 10 10 10 10 10 10 10 10 10 10 10 10 10 10 10 10 10 10 10 10 10 10 10 10 10 10 10 10 10 10 10 10 10 10 10 10 10 10 10 10 10 10 10 10 10 10 10 10 10 10 10 10 10 10 10 10 10 10 10 10 10 10 10 10 10 10 10 10 10 10 10 10 10 10 10 10 10 10 10 10 10 10 10 10 10 10 10 10 10 10 10 10 10 10 10 10 10 10 10 10 10 10 10 10 10 10 10 10 10 10 10 10 10 10 10 10 10 10 10 10 10 10 10 10 10 10 10 10 10 10 10 10 10 10 10 10 10 10 10 10 10 10 10 10 10 10 10 10 10 10 10 10 10 10 10 10 10 10 10 10 10 10 10 10 10 10 10 10 10 10 10 10 10 10 10 10 10 10 10 10 10 10 10 10 10 10 10 10 10 10 10 10 10 10 10 10 10 10 10 10 10 10 10 10 10 10 10 10 10 10 10 10 10 10 10 10 10 10 10 10 10 10 10 10 10 10 10 10 10 10 10 10 10 10 10 10 10 10 10 10 10 10 10 10 10 10 10 10 10 10 10 10 10 10 10 10 10 10 10 10 10 10 10 10 10 10 10 10 10 10 10 10 10 10 10 10 10 10 10 10 10 10 10 10 10 10 10 10 10 10 10 10 10 10 10 10 10 10 10 10 10 10 10 10 10 10 10 10 10 10 10 10 10 10 10 10 10 10 10 10 10 10 10 10 10 10 10 10 10 10 10 10 10 10 10 10 10 10 10 10 10 10 10 10 10 10 10 10 10 10 10 10 10 10 10 10 10 10 10 10 10 10 10 10 10 10 10 10 10 10 10 10 10 10 10 10 10 10 10 10 10 10 10 10 10 10 10 10 10 10 10 10 10 10 10 10 10 10 10 10 10 10 10 10 10 10 10 10 10 10 10 10 10 10 10 10 10 10 10 10 10 10 10 10 10 10 10 10 10 10 10 10 10 10 10 10 10 10 10 10 10 10 10 10 10 10 10 10 10 10 10 10 10 10 10 10 10 10 10 10 10 10 10 10 10 10 10 10 10 10 10 10 10 10 10 10 10 10 10 10 10 10 10 10 10 10 10 10 10 10 10 10 10 10 10 10 10 10 10 10 10 10 10 10 10 10 10 10 10 10 10 10 10 10 10 10 10 10 10 10 10 10 10 10 10 10 10 10 10 10 10 10 10 10 10 10 10 10 10 10 10 10 10 10 10 10 10 10 10 10 10 10 10 10 10 10 10 10 10 10 10 10 10 10 10 10 10 10 10 10 10 10 10 10 10 10 10 10 10 10 10 10 10 10 10 10 10 10 10 10 10 10 10 10 10 10 10 10 10 10 10 10 10 10 10 10 10 10 10 10 10 10 10 10 10 10 10 10 10 10 10 10 10 10 10 10 10 10 10 10 10 10 10 10 10 10 10 10 10 10 10 10 10 10 10 10 10 10 10 10 10 </DataArray>
</Cells>
<PointData  Tensors="stress"> 
<DataArray  type="Float64"  Name="stress"  NumberOfComponents="9" format="ascii">1.0088395378879991e+00 -1.9748690316923942e-01 -5.8397452333892810e+00 -1.9748690316923942e-01 2.1425747020406725e+00 -8.1806506647915134e-01 -5.8397452333892810e+00 -8.1806506647915134e-01 6.4246750793051843e+00  -1.5379848894553498e+00 1.0122411625325451e+00 2.9972313660277079e+00 1.0122411625325451e+00 9.8974463979726206e+00 -1.6883826509196953e+00 2.9972313660277083e+00 -1.6883826509196953e+00 2.7029792058446276e+00  -6.3310806293131627e-01 1.5686450262573517e+00 -3.5971144605885104e+00 1.5686450262573517e+00 9.5068015303362259e+00 1.8999589464683149e+00 -3.5971144605885108e+00 1.8999589464683149e+00 2.4636966705997558e+00  5.7793982489022222e-01 -7.5229467717508891e-01 5.4504093677634211e+00 -7.5229467717508891e-01 1.9668180502236787e+00 -5.7280317983589146e-01 5.4504093677634193e+00 -5.7280317983589146e-01 6.9563413913910681e+00  2.2544925071745885e+00 -2.1293452340486990e-01 1.1801584748678078e+00 -2.1293452340486990e-01 -1.5580550979929282e+00 1.1713848868934820e+00 1.1801584748678078e+00 1.1713848868934820e+00 9.3817877863892662e-01  3.9981598890832610e+00 -1.4564586749814881e-01 -1.0687357885230895e+00 -1.4564586749814881e-01 -2.4902580348976913e+00 -7.8788040496583822e-01 -1.0687357885230895e+00 -7.8788040496583822e-01 1.2650189968388734e+00  6.1087890832851932e-01 2.3810997130251907e-01 -9.7515643405331953e-01 2.3810997130251879e-01 2.5454615422595855e-01 3.6843010807227627e+00 -9.7515643405331953e-01 3.6843010807227627e+00 2.2196659539459698e+00  3.2388607560670424e-01 5.8475849863604823e-01 1.1884909556288694e+00 5.8475849863604823e-01 1.1400607626274157e+00 -1.7168536663724789e+00 1.1884909556288694e+00 -1.7168536663724789e+00 -4.9695024019875128e-01  -2.0046417980510274e+00 -8.8404641639766235e-01 -3.2838773624763604e+00 -8.8404641639766235e-01 5.6433444944547571e+00 -1.6858150272844874e+00 -3.2838773624763604e+00 -1.6858150272844874e+00 5.2840436910416075e+00  -2.4329535330048753e+00 -1.2014035472960773e+00 -2.6161262947802495e+00 -1.2014035472960773e+00 7.4628897138351888e+00 -1.3219925922497866e+00 -2.6161262947802495e+00 -1.3219925922497866e+00 4.9438808379530359e+00  -2.9461209825101622e+00 -2.0973304854909558e-01 -2.2579445054555913e+00 -2.0973304854909564e-01 8.1140305316604682e+00 -7.2036393919625119e-01 -2.2579445054555913e+00 -7.2036393919625119e-01 5.5261926966774153e+00  -3.3554459525468325e+00 5.5737088771936127e-01 3.7124850358082336e-02 5.5737088771936127e-01 7.9471671312221641e+00 -1.1396484395595337e+00 3.7124850358082336e-02 -1.1396484395595337e+00 6.4986628472491867e+00  -2.4794050967410399e+00 -8.6597300812549988e-02 2.6237076551479488e+00 -8.6597300812550043e-02 9.1669144677421706e+00 -1.4799607329322844e+00 2.6237076551479488e+00 -1.4799607329322848e+00 4.7221163263557484e+00  -2.3356139953647537e+00 -9.3745160648652093e-01 2.3247333988106194e+00 -9.3745160648652104e-01 1.0166203776571303e+01 -5.2885659541236563e-01 2.3247333988106194e+00 -5.2885659541236574e-01 3.4006265466496317e+00  -2.5857031374825632e+00 -3.1345714524649876e-01 2.0363584106283623e+00 -3.1345714524649881e-01 1.0418668272052143e+01 -3.2808739045257440e-01 2.0363584106283623e+00 -3.2808739045257440e-01 3.5426443249262101e+00  -2.2242793511998835e+00 1.7237249985128780e-01 2.6728744529732187e+00 1.7237249985128775e-01 9.8704024360398499e+00 -8.7322219896418418e-01 2.6728744529732187e+00 -8.7322219896418429e-01 3.4039824279978861e+00  -1.2348327779236932e+00 7.3621561773738042e-01 3.4638316189373120e+00 7.3621561773738042e-01 9.7869293029009903e+00 -1.1716371440044817e+00 3.4638316189373120e+00 -1.1716371440044817e+00 2.7929652268446130e+00  -9.0398711993449421e-01 -2.7488205258542178e+00 3.6864489907747386e+00 -2.7488205258542178e+00 8.3949924101217839e+00 -3.0529044273307077e-01 3.6864489907747386e+00 -3.0529044273307082e-01 3.4171868872747466e+00  2.5258202880340597e+00 -5.5815997185278050e+00 2.9326354577277201e+00 -5.5815997185278050e+00 4.6171455685061291e+00 1.1799442186206841e+00 2.9326354577277201e+00 1.1799442186206843e+00 3.8350809753830060e+00  6.5765263574987394e+00 -4.4207057563988217e+00 2.2323282813563332e+00 -4.4207057563988217e+00 -5.0448601605966543e-02 2.3618747881238789e+00 2.2323282813563332e+00 2.3618747881238784e+00 4.3116737620925170e+00  8.3356582386819369e+00 -1.0486768271488569e+00 1.3749751284054093e+00 -1.0486768271488569e+00 -1.7848960886847964e+00 3.4182280137741663e+00 1.3749751284054090e+00 3.4182280137741690e+00 4.4238766324245340e+00  7.7694981496576290e+00 2.4526582224415847e+00 -1.7023896159197591e-01 2.4526582224415847e+00 -7.4469897958023956e-01 4.0993034643696147e+00 -1.7023896159197593e-01 4.0993034643696147e+00 4.1762458144111250e+00  4.8687896851091876e+00 4.7210481634918198e+00 -1.5093659938889583e+00 4.7210481634918198e+00 2.4670508686295887e+00 3.8622028254310039e+00 -1.5093659938889583e+00 3.8622028254310039e+00 3.6156362618741107e+00  1.5380957783366225e+00 4.3357564010204745e+00 -2.6975973200062859e+00 4.3357564010204745e+00 6.4024159177217310e+00 3.1974330372122277e+00 -2.6975973200062859e+00 3.1974330372122282e+00 3.1257337926861886e+00  -2.4758284469261889e+00 -3.7260870209638930e-01 3.0508001474660085e+00 -3.7260870209638930e-01 4.9806483061019797e+00 3.0001617903562183e-01 3.0508001474660085e+00 3.0001617903562172e-01 5.5527147806797030e+00  -2.4334639515847765e+00 -8.1168318021777253e-01 2.7112496725671495e+00 -8.1168318021777253e-01 7.0205701919767600e+00 2.0421742799600190e-01 2.7112496725671500e+00 2.0421742799600204e-01 4.2911069456852795e+00  -2.7777645166570304e+00 -8.0258361272340228e-01 2.3781358091124210e+00 -8.0258361272340228e-01 7.4928712706562610e+00 6.2678914857231482e-01 2.3781358091124210e+00 6.2678914857231482e-01 5.3524984638066924e+00  -3.4019792082984899e+00 -3.2741613124236263e-01 4.8661777376738419e-01 -3.2741613124236268e-01 8.2758585923090227e+00 1.1382546284162520e+00 4.8661777376738419e-01 1.1382546284162518e+00 5.9979618815820892e+00  -3.2367940857581856e+00 1.0484128313349418e-01 -9.8534134126883033e-01 1.0484128313349411e-01 9.0056156667749647e+00 1.8755028938412976e+00 -9.8534134126883033e-01 1.8755028938412976e+00 5.4666517663825083e+00  -2.8774953033663104e+00 -4.3992714788277487e-01 -1.3619516416443465e+00 -4.3992714788277487e-01 9.7333985162452681e+00 2.2095883335974582e+00 -1.3619516416443465e+00 2.2095883335974587e+00 4.2409239106717393e+00  -3.0379376475461921e+00 -2.6084698231529746e-01 -1.0004995062406112e+00 -2.6084698231529757e-01 9.7064849845729277e+00 2.4825419208435431e+00 -1.0004995062406117e+00 2.4825419208435431e+00 4.5262242313068519e+00  -3.0288923725238983e+00 9.3860424708412493e-01 -1.3354681032946443e+00 9.3860424708412493e-01 9.3237310802183373e+00 2.1728672553916257e+00 -1.3354681032946445e+00 2.1728672553916257e+00 5.1851699504158750e+00  -1.9100721493776145e+00 1.3154220291295062e+00 -2.8834201562959980e+00 1.3154220291295062e+00 9.1759927175917095e+00 2.2434476874508626e+00 -2.8834201562959980e+00 2.2434476874508626e+00 4.3496530358951588e+00  8.8154532988345538e-02 -3.4278406752867696e-02 5.2668895202986583e+00 -3.4278406752867696e-02 2.2145701213455551e+00 -1.3043592974808291e+00 5.2668895202986592e+00 -1.3043592974808291e+00 7.3365365833079332e+00  2.9339961815435051e-01 6.3727680905590156e-01 4.4808830165313021e+00 6.3727680905590156e-01 1.8888769854032532e+00 -2.8227652304020081e+00 4.4808830165313021e+00 -2.8227652304020081e+00 7.3956224948025824e+00  7.6375542284783671e-01 1.1795678300582095e+00 3.7523944951182502e+00 1.1795678300582095e+00 1.3385988555413071e+00 -3.7392281581905613e+00 3.7523944951182497e+00 -3.7392281581905613e+00 7.6643184126721877e+00  1.6394629257721081e+00 9.4228101742454395e-01 2.2515350565943124e+00 9.4228101742454395e-01 6.1593145918089953e-01 -4.6418927778527967e+00 2.2515350565943124e+00 -4.6418927778527967e+00 7.7990853810811052e+00  2.0751765115911147e+00 6.4003417693925035e-01 1.3860681187236232e+00 6.4003417693925035e-01 2.0800394752611107e-01 -5.1117084418746215e+00 1.3860681187236232e+00 -5.1117084418746215e+00 8.0519467130475171e+00  2.2409565147376220e+00 8.4452796183684176e-02 -5.0434346750855408e-01 8.4452796183684176e-02 1.6323841802516936e-01 -5.3317427046702042e+00 -5.0434346750855408e-01 -5.3317427046702042e+00 8.3473816201920386e+00  2.2028721713183925e+00 -3.7024072988759671e-01 -1.7673631136271375e+00 -3.7024072988759671e-01 3.3272088032095809e-01 -5.2621249577047049e+00 -1.7673631136271375e+00 -5.2621249577047049e+00 7.3063311756807767e+00  1.7917737820262158e+00 -1.0529367269337497e+00 -4.0626001482731287e+00 -1.0529367269337495e+00 1.1188485497930025e+00 -3.8297339709328679e+00 -4.0626001482731287e+00 -3.8297339709328679e+00 8.0279223418417924e+00  7.9171534923924725e-01 -8.7229584645648206e-01 -5.2390358246419533e+00 -8.7229584645648206e-01 1.7588061603843728e+00 -2.2263387011434239e+00 -5.2390358246419515e+00 -2.2263387011434239e+00 8.6869218087544713e+00  2.0112645463429915e+00 7.2319112811403341e-01 6.2445705430913434e-01 7.2319112811403341e-01 -1.4060596507640413e+00 1.5637765995652726e+00 6.2445705430913434e-01 1.5637765995652726e+00 1.0457303188620879e+00  1.7775007860411116e+00 1.5331446073631343e+00 2.9701870575500089e-01 1.5331446073631345e+00 -9.2843605500580972e-01 1.6763303370063687e+00 2.9701870575500083e-01 1.6763303370063687e+00 9.5706885587506008e-01  6.3002514455471104e-01 1.7800013125707206e+00 -2.9659327671167540e-01 1.7800013125707206e+00 -9.2405343130472661e-02 1.7539115215753018e+00 -2.9659327671167540e-01 1.7539115215753018e+00 1.0984304157116613e+00  -6.6240912766350774e-02 1.9450010713079033e+00 -9.5873693590588516e-01 1.9450010713079033e+00 1.4310888837663136e+00 1.5758166759471164e+00 -9.5873693590588516e-01 1.5758166759471164e+00 5.8095313953724137e-01  -8.6709683131622750e-01 1.2574749995602414e+00 -1.3406601376294114e+00 1.2574749995602410e+00 2.3440272622112506e+00 1.4199725505826488e+00 -1.3406601376294114e+00 1.4199725505826488e+00 5.0138303849389676e-01  -1.3897235746542160e+00 4.2936345095695033e-01 -1.5879205894776114e+00 4.2936345095695050e-01 2.5428418844937299e+00 9.8315842497844197e-01 -1.5879205894776116e+00 9.8315842497844197e-01 8.0550185637706584e-01  -1.1642860054687505e+00 -4.7328506910025653e-01 -1.9791006670997984e+00 -4.7328506910025653e-01 2.6286529445115958e+00 6.2377937235246905e-01 -1.9791006670997984e+00 6.2377937235246939e-01 7.6743978348779596e-01  -5.6070808699314312e-01 -1.6011237778579792e+00 -1.7042464377089548e+00 -1.6011237778579792e+00 1.9644016271313178e+00 2.0110613964760864e-02 -1.7042464377089548e+00 2.0110613964760930e-02 3.4989112301576608e-01  5.5012551328361170e-01 -2.1301157106473134e+00 -1.7974178389627422e+00 -2.1301157106473130e+00 4.7774567317188738e-01 1.0422738916511584e-01 -1.7974178389627427e+00 1.0422738916511580e-01 7.2160670760409951e-01  1.2684150607046758e+00 -9.5068266442192340e-01 -1.6292332942420387e+00 -9.5068266442192317e-01 -1.3339702579470847e+00 -5.9358950200715166e-01 -1.6292332942420382e+00 -5.9358950200715177e-01 1.1401273021661733e+00  3.0326346949748575e+00 -1.3638401491467795e+00 -1.2404017947352408e+00 -1.3638401491467793e+00 -1.8163605776263452e+00 -9.0428990567295497e-01 -1.2404017947352401e+00 -9.0428990567295497e-01 1.0373434773601600e+00  5.3237364712898030e+00 -8.7121953734209845e-01 -1.4889731533794395e+00 -8.7121953734209823e-01 -2.3339186794954698e+00 -2.0503513162096794e+00 -1.4889731533794390e+00 -2.0503513162096794e+00 2.7708874559375034e+00  5.3011124541092727e+00 -6.4926077362915635e-01 -1.3280155758172125e+00 -6.4926077362915635e-01 -9.0722596046952098e-01 -3.1807314819369115e+00 -1.3280155758172125e+00 -3.1807314819369115e+00 1.6877598090731163e+00  4.2371975931013992e+00 -1.7231319784183632e-01 -7.3026337785184059e-01 -1.7231319784183652e-01 -8.4903919706049613e-01 -2.7242617801982560e+00 -7.3026337785184059e-01 -2.7242617801982556e+00 4.4407131788413484e-01  3.5091037157161669e+00 -3.3042922822994786e-02 -5.8177804053900273e-01 -3.3042922822994786e-02 -1.8355531243799610e+00 -1.8506838509898329e+00 -5.8177804053900273e-01 -1.8506838509898329e+00 1.0192532278192148e+00  3.1396337869707795e+00 -6.4572033871337475e-01 -9.8430173106380237e-01 -6.4572033871337475e-01 -2.4633597780800636e+00 -1.1734095154841375e+00 -9.8430173106380237e-01 -1.1734095154841377e+00 2.5417551262004214e+00  2.4485663855475703e+00 -6.9081249676189427e-01 -7.8921924342144378e-01 -6.9081249676189427e-01 -2.5268928035607416e+00 -5.5735421814819963e-01 -7.8921924342144378e-01 -5.5735421814819963e-01 2.6591875574611721e+00  1.5818954460443351e+00 -1.0166184417590951e+00 -1.3909533450414571e-01 -1.0166184417590949e+00 -1.9063434334416851e+00 8.1909801219613554e-01 -1.3909533450414571e-01 8.1909801219613554e-01 1.6829235883741556e+00  1.5952258315347900e+00 -1.5059473048625662e+00 -5.7712037844172967e-03 -1.5059473048625664e+00 -1.1800329222365595e+00 2.3828324021195804e+00 -5.7712037844172967e-03 2.3828324021195804e+00 2.4560191092619879e+00  1.8097070088644980e+00 -1.2560195695000889e+00 -2.2427576300578084e-01 -1.2560195695000886e+00 -1.1890993852909757e+00 3.1354328261746405e+00 -2.2427576300578075e-01 3.1354328261746414e+00 3.6774095372362083e+00  6.2268755853099100e-01 1.8433788822577923e-01 -2.9018992219618173e-01 1.8433788822577923e-01 6.2634971780446500e-03 3.4859491712597981e+00 -2.9018992219618173e-01 3.4859491712597981e+00 1.7007569880870490e+00  6.0333861569518354e-01 6.1878870491252735e-02 2.0841943586733200e-01 6.1878870491252694e-02 -1.4603794997909028e-01 3.1993592961139106e+00 2.0841943586733200e-01 3.1993592961139106e+00 1.3085396244974397e+00  7.0809621314511373e-01 -1.7262419067966644e-01 8.5921506004913317e-01 -1.7262419067966639e-01 -2.2699815353378902e-01 3.0665995001215274e+00 8.5921506004913317e-01 3.0665995001215274e+00 1.3122795761517261e+00  8.1646127185370387e-01 -4.2785213435513841e-01 1.2711456772460434e+00 -4.2785213435513841e-01 -5.1362103164501648e-02 2.7433170413632788e+00 1.2711456772460441e+00 2.7433170413632788e+00 9.8974431587244627e-01  6.4803088734514613e-01 -3.5128572768273003e-01 1.7693880523887195e+00 -3.5128572768273003e-01 -5.3534432951651938e-02 2.3945666873383034e+00 1.7693880523887195e+00 2.3945666873383034e+00 8.6670123165996549e-01  1.0747669815682757e+00 -2.3951739341545769e-01 1.6022982450246448e+00 -2.3951739341545769e-01 1.6036184305212689e-01 1.7965436259445926e+00 1.6022982450246452e+00 1.7965436259445926e+00 -4.7192087057525023e-01  1.1670410380962286e+00 -3.9038318153218921e-01 1.8891560598699466e+00 -3.9038318153218921e-01 2.7978761436730631e-01 1.0515966437008757e+00 1.8891560598699475e+00 1.0515966437008757e+00 -6.8355836553930760e-01  7.2009580930260031e-01 -7.5711848913273216e-01 2.4885069503180639e+00 -7.5711848913273216e-01 7.0618062343830323e-01 7.8562455607236292e-01 2.4885069503180639e+00 7.8562455607236303e-01 7.3187657768790201e-02  7.9573488849563268e-01 -8.1590406956593520e-01 2.2599505282726433e+00 -8.1590406956593520e-01 1.0731471270391595e+00 6.9544343965272606e-02 2.2599505282726433e+00 6.9544343965272509e-02 -7.2598064859158506e-01  5.1648790780198262e-01 -8.4850000536812598e-01 2.2731000258272234e+00 -8.4850000536812598e-01 1.4518653127349004e+00 -2.9100355397677896e-01 2.2731000258272234e+00 -2.9100355397677907e-01 -7.8820807128008097e-01  -5.4242447728744841e-02 -5.1200783202376976e-01 2.0928684178660961e+00 -5.1200783202376976e-01 1.6814016937876257e+00 -9.1006347769702955e-01 2.0928684178660961e+00 -9.1006347769702955e-01 -4.2574699386712844e-01  -2.0393839794493721e-01 1.0589220972138003e-01 2.0372373732461848e+00 1.0589220972138003e-01 1.4727720901623702e+00 -1.2662453606175055e+00 2.0372373732461848e+00 -1.2662453606175055e+00 1.7147131561384879e-01  3.1192436025266179e-01 1.7016941778598041e-01 1.3261118468299538e+00 1.7016941778598038e-01 1.5582519028167869e+00 -1.4133934890113828e+00 1.3261118468299538e+00 -1.4133934890113828e+00 -9.4247345678692407e-01  3.8808563375166227e-01 -6.8127312882944580e-01 -1.7100943913056482e-01 -6.8127312882944580e-01 1.8725648313354628e+00 -1.8404727392987739e+00 -1.7100943913056468e-01 -1.8404727392987739e+00 -1.5581633528252972e+00  -1.4563932503305288e-01 5.3888790615655313e-01 9.3668650108894924e-01 5.3888790615655313e-01 1.2105244894304112e+00 -1.7695287966321289e+00 9.3668650108894924e-01 -1.7695287966321289e+00 -5.6391390571260049e-03  2.1380080924636551e+00 -8.7758332218175594e-01 8.2545339935967210e-01 -8.7758332218175605e-01 -1.8261479819980801e+00 8.0546767419488186e-01 8.2545339935967244e-01 8.0546767419488186e-01 1.4052456416531469e+00  2.0819100343922483e+00 -9.1090862895587277e-01 1.0675427850994286e+00 -9.1090862895587232e-01 -2.0412276490839885e+00 1.0318792631280861e-01 1.0675427850994286e+00 1.0318792631280861e-01 1.5999937114384022e+00  2.7486314162719787e+00 -1.4224268281647796e+00 1.1188393933147998e+00 -1.4224268281647798e+00 -2.3057503971565798e+00 -7.9520133321642969e-02 1.1188393933147998e+00 -7.9520133321642927e-02 2.3692925814620875e+00  3.6226340555434988e+00 -1.4508634423699949e+00 1.2218260464193322e+00 -1.4508634423699949e+00 -2.5331134599938818e+00 3.5069227488068849e-01 1.2218260464193322e+00 3.5069227488068844e-01 2.9638032072958813e+00  3.3295870360929980e+00 -1.2251163545001078e+00 1.1864509578698554e+00 -1.2251163545001080e+00 -2.5076505118918249e+00 6.2559780365749118e-01 1.1864509578698552e+00 6.2559780365749118e-01 2.9410113793239541e+00  3.0046619730686577e+00 -9.5796015598776829e-01 9.3100868208438003e-01 -9.5796015598776829e-01 -2.6177199718056738e+00 4.8567759723004245e-01 9.3100868208437970e-01 4.8567759723004245e-01 2.9592392739389020e+00  2.3728821531762150e+00 -7.8918884105826770e-01 7.4693728399456083e-01 -7.8918884105826770e-01 -2.5812886614140975e+00 2.2819696152317967e-01 7.4693728399456083e-01 2.2819696152317967e-01 3.1029884239210457e+00  1.6803667003973342e+00 -7.4144969177138154e-01 1.3273647950702419e+00 -7.4144969177138154e-01 -2.3552982889822944e+00 -1.8102845834276390e-01 1.3273647950702419e+00 -1.8102845834276396e-01 2.9801645424477150e+00  9.9235940326793504e-01 -4.6866147595161534e-01 1.4439385963870679e+00 -4.6866147595161534e-01 -1.0634009386590197e+00 -1.4400681017214703e-01 1.4439385963870679e+00 -1.4400681017214703e-01 3.7661662308056482e-01  3.7080635895235461e+00 1.0660796933932892e+00 -7.0315166956855601e-01 1.0660796933932895e+00 -2.1905358430661002e+00 -1.4958188656206015e+00 -7.0315166956855601e-01 -1.4958188656206017e+00 1.4261986800242674e+00  3.2660156366837505e+00 2.7067710550878439e+00 -2.6007560708285682e-01 2.7067710550878430e+00 -1.3059582116765474e+00 -1.6252712213821123e+00 -2.6007560708285682e-01 -1.6252712213821121e+00 1.5764998635814067e+00  1.4659884033151809e+00 3.2086387429328362e+00 2.9102779212095120e-01 3.2086387429328362e+00 -9.7326602663980036e-02 -1.5574145160281165e+00 2.9102779212095109e-01 -1.5574145160281165e+00 1.9454198283515698e+00  -3.8789073781017464e-01 3.1478867141181119e+00 6.4547657016104798e-01 3.1478867141181119e+00 1.8271041081804955e+00 -1.4880740223933764e+00 6.4547657016104798e-01 -1.4880740223933764e+00 1.9349819843554152e+00  -1.6574255459445590e+00 1.9519472170943479e+00 1.0264781503202063e+00 1.9519472170943479e+00 2.4079315889912816e+00 -1.4117802742510897e+00 1.0264781503202063e+00 -1.4117802742510897e+00 2.1279787015726983e+00  -1.9679002255202456e+00 7.2340669696729809e-01 1.4708656457934994e+00 7.2340669696729809e-01 2.9993090957445534e+00 -1.0334346954251323e+00 1.4708656457934994e+00 -1.0334346954251323e+00 1.6385624070065181e+00  -1.5912154583892897e+00 -7.5069860849623715e-01 1.7698074802265076e+00 -7.5069860849623715e-01 2.4350448003178924e+00 -6.0223150118768032e-01 1.7698074802265076e+00 -6.0223150118768043e-01 1.1909534240830726e+00  -1.5489272207423479e+00 -1.1446640203180314e+00 1.5011195695942650e+00 -1.1446640203180314e+00 1.7714578633010993e+00 -4.8664774158036056e-01 1.5011195695942650e+00 -4.8664774158036056e-01 1.4666919474916253e+00  -1.8517994231354457e-01 -1.6177878991251895e+00 1.4480999709194002e+00 -1.6177878991251895e+00 3.7649988625744546e-01 1.9642941832505109e-01 1.4480999709194002e+00 1.9642941832505109e-01 1.0107933168003271e+00  5.3539054866898450e-01 -1.7180537474318076e+00 1.2342387460605475e+00 -1.7180537474318076e+00 -3.7363427871630023e-01 4.0778452033275203e-01 1.2342387460605473e+00 4.0778452033275236e-01 1.0262000121485022e+00  1.9685528349908952e+00 -7.2583124016511935e-01 1.2296185857663455e+00 -7.2583124016511946e-01 -1.2847056420991894e+00 1.0264000588915330e+00 1.2296185857663455e+00 1.0264000588915330e+00 6.6307954090915711e-01  3.8841803572071482e-01 4.3121221317712671e-01 9.3359651396403898e-01 4.3121221317712671e-01 4.6444163699516461e-01 -2.0061029365091056e+00 9.3359651396403898e-01 -2.0061029365091056e+00 2.8045817543721491e-01  7.7262305135819964e-01 2.7411708158413112e-01 6.4148520495821437e-01 2.7411708158413112e-01 8.6697944090625456e-01 -1.8341339420789105e+00 6.4148520495821437e-01 -1.8341339420789105e+00 -8.4041508800417519e-01  2.8798003727889510e-01 7.2369749721669485e-01 -2.5152422877347969e-01 7.2369749721669485e-01 6.8738434913263580e-01 -1.6986470458298730e+00 -2.5152422877347969e-01 -1.6986470458298730e+00 -3.5849113282323791e-01  8.3114624450516517e-01 5.6703260717388149e-01 -3.8512730607016249e-01 5.6703260717388149e-01 4.3657205787954406e-01 -1.8916354438046343e+00 -3.8512730607016249e-01 -1.8916354438046343e+00 -5.5977647038862255e-01  7.2171759643369315e-01 -2.9645461981682147e-02 -9.7607386855876743e-01 -2.9645461981682147e-02 -3.3227391434264655e-03 -2.5210691611494869e+00 -9.7607386855876743e-01 -2.5210691611494869e+00 7.3706541409811976e-01  6.7593976779568454e-01 -2.7837203975742942e-03 -1.2505076739767504e+00 -2.7837203975742916e-03 4.0197061596018724e-01 -2.3675503389047803e+00 -1.2505076739767504e+00 -2.3675503389047803e+00 4.6168174847616356e-01  4.2432039989619258e-01 -3.1438671948407954e-01 -2.3270531457463406e+00 -3.1438671948407954e-01 2.5611502781365186e-01 -2.0780436676236826e+00 -2.3270531457463406e+00 -2.0780436676236826e+00 1.1659819063684269e+00  4.7266213174673799e-01 -3.4592238145457022e-01 -3.0532762849404844e+00 -3.4592238145457022e-01 5.4591312404493120e-01 -1.4869956003910614e+00 -3.0532762849404844e+00 -1.4869956003910614e+00 1.1501043310719876e+00  5.7755776288200189e-01 -1.8885040607491646e-01 -3.4121823066196537e+00 -1.8885040607491646e-01 6.8128399571536202e-01 -8.7791294836748424e-01 -3.4121823066196537e+00 -8.7791294836748424e-01 1.3133085032647085e+00  4.2218849500661343e-01 -1.3457316692571208e-01 -3.7102934098895490e+00 -1.3457316692571208e-01 7.3127739507523004e-01 2.7868040135591571e-01 -3.7102934098895490e+00 2.7868040135591571e-01 1.7582910958828324e+00  6.0784194770824129e-01 -1.3306994219554685e-01 -3.8007811450911593e+00 -1.3306994219554680e-01 7.4263349666068945e-01 9.3839876695864599e-01 -3.8007811450911593e+00 9.3839876695864599e-01 1.8155692469049440e+00  6.4595148514567868e-01 -8.5848048274617242e-02 -3.5701438311129099e+00 -8.5848048274617228e-02 7.6906109431937697e-01 1.7709338740972473e+00 -3.5701438311129099e+00 1.7709338740972473e+00 1.9694758714415312e+00  6.2873252968889459e-01 -4.3724026786242577e-02 -3.1370592009373524e+00 -4.3724026786242570e-02 8.9007445131574869e-01 2.6288508475421972e+00 -3.1370592009373524e+00 2.6288508475421972e+00 2.1519299744700779e+00  6.9025948453238861e-01 1.6641227744904255e-01 -2.6442628653243605e+00 1.6641227744904255e-01 6.8869724045948433e-01 3.2259770076130367e+00 -2.6442628653243605e+00 3.2259770076130367e+00 2.5365280266476735e+00  6.7796922286395289e-01 2.9995335397003881e-01 -1.7842036004918098e+00 2.9995335397003881e-01 5.9809846798023569e-01 3.6360890843640523e+00 -1.7842036004918098e+00 3.6360890843640514e+00 2.3416682638901727e+00  -4.7749601144073522e-01 -2.6267194896033592e+00 -3.6198633755049392e+00 -2.6267194896033579e+00 9.6946616234542340e+00 -1.5494759107397404e-01 -3.6198633755049396e+00 -1.5494759107397399e-01 2.2701380350623479e+00  3.1510148284830422e+00 -5.9478597015500450e+00 -2.5675589371676395e+00 -5.9478597015500467e+00 6.1769891769695047e+00 -1.9342624625575748e+00 -2.5675589371676391e+00 -1.9342624625575753e+00 2.3605213969921799e+00  8.3442939018501505e+00 -5.4963989878110784e+00 -1.2606312743222927e+00 -5.4963989878110784e+00 1.3721503771844314e+00 -2.8603948592900177e+00 -1.2606312743222929e+00 -2.8603948592900177e+00 2.5357055786092784e+00  1.0792972153782872e+01 -4.6319241702148589e-01 -3.7568018958858851e-01 -4.6319241702148573e-01 -1.9341346395708330e+00 -2.6665620477568299e+00 -3.7568018958858868e-01 -2.6665620477568299e+00 2.6390855049095823e+00  8.8990940597293839e+00 4.1675058897631416e+00 8.8762233281495340e-01 4.1675058897631407e+00 -4.6565406005737514e-01 -2.5812030807879816e+00 8.8762233281495340e-01 -2.5812030807879816e+00 3.0050408680661098e+00  4.9470446297881558e+00 6.1276901414321863e+00 1.2799903947232107e+00 6.1276901414321863e+00 3.9366939312186249e+00 -2.6171519075224436e+00 1.2799903947232107e+00 -2.6171519075224436e+00 2.3795813220402540e+00  4.3552070930622716e-01 4.3431230081145804e+00 1.9685646640183458e+00 4.3431230081145804e+00 7.6438303491118251e+00 -2.6910642829927447e+00 1.9685646640183458e+00 -2.6910642829927447e+00 2.4619226562427410e+00  1.0111600155463578e+00 1.6374331699895445e-01 -5.6611451316218702e+00 1.6374331699895445e-01 2.2626867790434795e+00 2.1468474319582982e+00 -5.6611451316218702e+00 2.1468474319582982e+00 7.2544691539440933e+00  1.0247386842314503e+00 4.5083255963458968e-01 -4.6197308436474778e+00 4.5083255963458968e-01 1.8676606392290789e+00 3.7154829925915047e+00 -4.6197308436474778e+00 3.7154829925915047e+00 7.6332652513971651e+00  1.5610130157237867e+00 3.2372545313921902e-01 -4.2609380300160762e+00 3.2372545313921902e-01 1.7429576957200548e+00 4.3275513096700786e+00 -4.2609380300160762e+00 4.3275513096700786e+00 6.4330123208844689e+00  1.7182150542532062e+00 5.5367400370657138e-01 -2.4250267055673302e+00 5.5367400370657149e-01 1.1134794107488957e+00 5.3114041191498478e+00 -2.4250267055673302e+00 5.3114041191498478e+00 7.2076356236976942e+00  2.0176916845983763e+00 2.1180532730103699e-01 -1.0418380022468234e+00 2.1180532730103699e-01 1.3322838603792340e+00 5.8600592263713080e+00 -1.0418380022468234e+00 5.8600592263713080e+00 6.0056526161168859e+00  2.0026175304215132e+00 -5.4300840334152875e-02 7.6908199017237000e-01 -5.4300840334152896e-02 1.3055910224004128e+00 5.8490484605633544e+00 7.6908199017237000e-01 5.8490484605633544e+00 5.7374458814173632e+00  1.9847284694769787e+00 -2.4043443373896944e-01 2.6068792861172718e+00 -2.4043443373896944e-01 1.1918620221884302e+00 5.1848763752860094e+00 2.6068792861172718e+00 5.1848763752860094e+00 5.5894501895365112e+00  1.7229889135543410e+00 -6.7522128279876337e-01 4.5945745690783273e+00 -6.7522128279876337e-01 9.5543975526922775e-01 3.2751071543655561e+00 4.5945745690783264e+00 3.2751071543655561e+00 6.1590606746640573e+00  9.5851870250853277e-01 -6.3314824788327895e-01 5.3617459545097077e+00 -6.3314824788327895e-01 1.9770866530723996e+00 1.7399420875653575e+00 5.3617459545097077e+00 1.7399420875653575e+00 6.1584394680653709e+00  -9.0714057017666228e-01 4.7800839191438476e+00 6.7874101112541663e-01 4.7800839191438476e+00 6.2403075575352993e+00 1.0775943609827547e+00 6.7874101112541652e-01 1.0775943609827547e+00 4.7839666642872869e+00  -1.0639293224185347e+00 -4.6330864664860680e+00 -5.3153796967046008e-01 -4.6330864664860680e+00 5.9443223894343777e+00 -1.2008282016089658e+00 -5.3153796967046008e-01 -1.2008282016089658e+00 6.1336905553782701e+00  7.6252429934426207e+00 -4.8570096968305414e+00 6.8425599746374044e-01 -4.8570096968305414e+00 -1.0086501256509000e+00 8.9295017760372208e-01 6.8425599746374044e-01 8.9295017760372197e-01 4.0535086802628335e+00  6.4314686728298582e+00 1.2201147922094682e+00 1.7440240199489705e+00 1.2201147922094679e+00 -2.8659935542147394e+00 -1.6664492625876663e+00 1.7440240199489705e+00 -1.6664492625876663e+00 5.5712685479214077e+00  6.0674673703324817e+00 -2.9864934096537068e+00 5.3264442920531574e-01 -2.9864934096537068e+00 -2.0756427494993877e+00 -2.2638495037887081e+00 5.3264442920531574e-01 -2.2638495037887081e+00 5.5800443101205079e+00  8.3992072591441556e+00 -8.0706501573318157e-01 8.6513711701418217e-01 -8.0706501573318157e-01 -3.3275421052682157e+00 -3.6320834248520284e-01 8.6513711701418217e-01 -3.6320834248520284e-01 5.3365736907669996e+00  6.8813930010740636e+00 4.6291813345307213e+00 4.7638239228275214e-01 4.6291813345307213e+00 -1.2540279701052282e+00 2.0085673249900907e-01 4.7638239228275214e-01 2.0085673249900907e-01 4.6210608755163092e+00  9.8676317653738028e+00 1.6616751157690908e+00 7.7315355844765746e-02 1.6616751157690908e+00 -2.9598164605144275e+00 3.3061472880567927e-01 7.7315355844765746e-02 3.3061472880567927e-01 3.6996466690590970e+00  8.8372070502660485e+00 2.5485437458611098e+00 5.0584650612683224e-01 2.5485437458611098e+00 -2.7010654703595698e+00 1.1769887651604229e+00 5.0584650612683224e-01 1.1769887651604232e+00 4.7040539312008658e+00  1.3947250828113189e+00 -6.2039519347805632e+00 1.3921692885762373e+00 -6.2039519347805632e+00 6.5099493208971317e+00 5.3894255921544776e-01 1.3921692885762373e+00 5.3894255921544776e-01 2.9779326815288076e+00  5.0951902087229843e+00 6.1110585690925587e+00 6.1169278864703047e-01 6.1110585690925587e+00 1.3358424547475973e+00 3.1355547655209071e-01 6.1169278864703047e-01 3.1355547655209071e-01 3.7625607006764961e+00  2.0252419513699231e+00 6.0026010791763289e+00 5.6424450035009795e-02 6.0026010791763289e+00 3.3389280354734279e+00 1.7012396495979276e+00 5.6424450035009802e-02 1.7012396495979281e+00 5.4064565086775556e+00  7.2680479944098009e+00 -4.8030182330159112e+00 7.1035566870397249e-01 -4.8030182330159104e+00 -8.4070256434278301e-01 1.2006954989761172e+00 7.1035566870397249e-01 1.2006954989761172e+00 4.3126267325929772e+00  6.7161416190925536e+00 5.6366715753772763e+00 6.9201860963272210e-01 5.6366715753772763e+00 -1.1458946684708329e-02 1.5668916068011537e-01 6.9201860963272188e-01 1.5668916068011537e-01 3.9182376459099664e+00  1.2471512433083450e-01 5.5082417866071580e+00 8.9039932575149561e-01 5.5082417866071580e+00 6.0968293076657138e+00 1.5526490927028382e+00 8.9039932575149561e-01 1.5526490927028382e+00 4.0045513007911104e+00  2.6951441640590161e+00 5.1301131117706191e+00 1.2863771653521021e+00 5.1301131117706191e+00 8.1358813446121547e-01 -2.2004305931079032e-01 1.2863771653521021e+00 -2.2004305931079057e-01 5.6658628110363978e+00  -2.0417572036371179e+00 3.2003439637834261e+00 1.5779038501707416e+00 3.2003439637834261e+00 5.1871812563604722e+00 -3.3072910352658819e-01 1.5779038501707416e+00 -3.3072910352658819e-01 5.2292809812573244e+00  1.1235817975085831e+00 5.6576480944539647e+00 4.9832689503413047e-01 5.6576480944539647e+00 3.9962390617859804e+00 1.0657457041638609e-01 4.9832689503413069e-01 1.0657457041638611e-01 4.2152463648444263e+00  8.7565565400638103e+00 -4.1743759731046541e+00 3.7696506093595961e-01 -4.1743759731046541e+00 -1.4624818854613235e+00 9.4383710012533439e-01 3.7696506093595961e-01 9.4383710012533439e-01 3.3388610965779306e+00  4.8234257832684753e+00 -5.4647233702393097e+00 3.4844961128083857e-01 -5.4647233702393097e+00 3.2260226973073597e-01 -1.1767929866294276e+00 3.4844961128083851e-01 -1.1767929866294276e+00 5.6187984148656698e+00  1.2758248371305718e+00 -5.1412875744327566e+00 -9.8292001636930704e-01 -5.1412875744327566e+00 3.6561946220710673e+00 -2.3064944237018428e+00 -9.8292001636930704e-01 -2.3064944237018428e+00 4.7169733381650305e+00  1.8815276644655159e+00 -5.8352550888621106e+00 1.6596281786836133e+00 -5.8352550888621106e+00 3.9969155917094037e+00 9.4969220312465141e-01 1.6596281786836133e+00 9.4969220312465141e-01 5.0462403906081290e+00  1.6547952839249117e-01 -5.0597830704809397e+00 2.2743100935151048e+00 -5.0597830704809397e+00 7.0436349160002738e+00 7.1030439308142435e-01 2.2743100935151057e+00 7.1030439308142435e-01 3.6949826006737032e+00  -2.3108313729992269e+00 2.8996196322763135e+00 1.4523849936768405e+00 2.8996196322763135e+00 7.0848104538319721e+00 -1.7923072716820093e-01 1.4523849936768400e+00 -1.7923072716820088e-01 4.6712529767685638e+00  9.9101679442280410e+00 5.0872971348554497e-01 2.0706227585890224e-01 5.0872971348554452e-01 -3.2232539096926178e+00 2.1842977192458365e-01 2.0706227585890224e-01 2.1842977192458365e-01 3.9129475307080788e+00  -1.2686247053262292e+00 -3.4791634323075216e+00 2.7208765994326325e+00 -3.4791634323075216e+00 7.9700729375496202e+00 -7.3741149427426406e-02 2.7208765994326325e+00 -7.3741149427426433e-02 4.3486082468899561e+00  -1.5631053490683890e+00 -2.7282376267224580e+00 -2.0258534522107872e+00 -2.7282376267224580e+00 4.1933288990022106e+00 -2.6623286567134197e+00 -2.0258534522107872e+00 -2.6623286567134197e+00 6.1821043129232631e+00  -1.2352004443539331e+00 -3.6856358362952251e+00 -1.6475475514660975e+00 -3.6856358362952251e+00 6.2693945267836106e+00 -2.0871697584990829e+00 -1.6475475514660975e+00 -2.0871697584990829e+00 4.5713388938721620e+00  1.0606125804647069e+00 -4.2958458221854707e+00 -8.1007896171945126e-01 -4.2958458221854707e+00 1.8121662321779448e+00 -2.9551352863266653e+00 -8.1007896171945126e-01 -2.9551352863266653e+00 6.3275995745933926e+00  -1.6920126893174690e+00 -2.8733741471007952e+00 2.4474179323692922e+00 -2.8733741471007952e+00 9.2233385057407951e+00 3.8229666849518401e-01 2.4474179323692931e+00 3.8229666849518401e-01 3.5797798199074045e+00  -1.2540933969986290e+00 -2.3111746253553327e+00 3.2346504915020944e+00 -2.3111746253553327e+00 8.8146237176501110e+00 1.6603478400306532e-01 3.2346504915020944e+00 1.6603478400306532e-01 3.1267598992600685e+00  1.0472374050983959e+00 -5.3983865534573203e+00 2.3056910231818399e+00 -5.3983865534573203e+00 5.6073092787048209e+00 1.1167252417312032e+00 2.3056910231818399e+00 1.1167252417312032e+00 4.0301729453547797e+00  3.4307351065667540e+00 5.6085871845312401e+00 -1.0718274922405231e+00 5.6085871845312392e+00 2.5661068601838952e+00 2.7845861676924399e+00 -1.0718274922405231e+00 2.7845861676924399e+00 5.1801304603713811e+00  2.7457551209978737e-01 4.6593220540167559e+00 -1.9490564957360348e+00 4.6593220540167568e+00 6.2352872093294636e+00 2.8509554129779393e+00 -1.9490564957360348e+00 2.8509554129779380e+00 4.7331318427149318e+00  -1.4052439336980036e+00 4.4546684122967122e+00 -4.8222704819250889e-01 4.4546684122967104e+00 6.9413781802512782e+00 2.0074427845685681e+00 -4.8222704819250889e-01 2.0074427845685681e+00 5.6286952894569691e+00  -2.7930968870564601e+00 1.3943952491711127e+00 2.1517811101347326e+00 1.3943952491711127e+00 6.1594854426311931e+00 -7.6302522666550646e-02 2.1517811101347322e+00 -7.6302522666550646e-02 5.0887938799439905e+00  -2.7490332190462037e+00 1.0312742480913353e+00 2.5186572021892064e+00 1.0312742480913353e+00 4.2601342527093404e+00 1.8722776037151659e-01 2.5186572021892064e+00 1.8722776037151659e-01 6.0466282957735809e+00  -1.9427876024081754e+00 2.5973174998674242e+00 2.5582601611487226e+00 2.5973174998674242e+00 3.5447307985744616e+00 -5.3283421862870461e-01 2.5582601611487226e+00 -5.3283421862870461e-01 6.6389835897802545e+00  -1.9521067016802529e+00 -3.0304733884760346e+00 -1.9456349735487553e+00 -3.0304733884760346e+00 7.3293777704995602e+00 -1.5698943936207104e+00 -1.9456349735487548e+00 -1.5698943936207104e+00 5.3168384483177951e+00  -2.9337811392985360e+00 -2.2470294509694471e+00 -4.8613010590160638e-01 -2.2470294509694471e+00 7.8109513473761147e+00 -9.3033582102062995e-01 -4.8613010590160638e-01 -9.3033582102062995e-01 6.2740995755815812e+00  2.3248929521923889e-01 -4.9932112777584878e+00 -1.1025102557308593e+00 -4.9932112777584878e+00 5.1709682951351832e+00 -2.2145016917493625e+00 -1.1025102557308590e+00 -2.2145016917493621e+00 4.9215802356764398e+00  -2.7767794261379954e+00 -1.5673777986376001e+00 1.9620621066346127e+00 -1.5673777986376001e+00 8.4566720152171015e+00 -6.6609846993483324e-01 1.9620621066346127e+00 -6.6609846993483313e-01 5.8154476623870375e+00  -1.8060313131640777e+00 -2.3369153246887375e+00 2.6794572426456407e+00 -2.3369153246887371e+00 9.2902802992537197e+00 -2.5501302251568936e-01 2.6794572426456407e+00 -2.5501302251568936e-01 3.5956446177606525e+00  -1.6697033514983741e+00 -4.0580168038819320e+00 1.3677980932230362e+00 -4.0580168038819320e+00 7.1074640501629505e+00 -4.2316206932095529e-01 1.3677980932230362e+00 -4.2316206932095529e-01 6.2305389524769810e+00  -1.2872667459937905e+00 -3.9938074488796635e+00 1.7937547403950005e+00 -3.9938074488796635e+00 9.1330728251726647e+00 1.6879188031889161e-01 1.7937547403950005e+00 1.6879188031889161e-01 3.0974393198894874e+00  -1.6096415336741916e+00 -3.7414472424760508e+00 1.8006800372027021e+00 -3.7414472424760508e+00 9.1633098390759873e+00 3.9918671512099363e-01 1.8006800372027021e+00 3.9918671512099368e-01 3.7158374012723332e+00  -2.9601975370594669e-02 -4.8445911628108815e+00 2.0825821289931477e+00 -4.8445911628108815e+00 7.8028842618487131e+00 4.2537428421528939e-01 2.0825821289931477e+00 4.2537428421528939e-01 2.8443969950024979e+00  8.1316967780133231e-01 -5.8406920805494051e+00 1.6566931707890820e+00 -5.8406920805494051e+00 6.4303187775269723e+00 5.5713572508885123e-01 1.6566931707890828e+00 5.5713572508885123e-01 3.6965625514399574e+00  5.6650908884221263e+00 -6.0102044428601626e+00 1.1550153380862958e+00 -6.0102044428601626e+00 1.2042942487766031e+00 1.4033080354064755e+00 1.1550153380862958e+00 1.4033080354064755e+00 4.1914735153380205e+00  8.2303660390573370e+00 -3.3181154528006909e+00 1.4159562358228310e+00 -3.3181154528006909e+00 -2.0743832710424930e+00 1.5211347498261369e+00 1.4159562358228313e+00 1.5211347498261369e+00 4.6201436953678749e+00  3.9749806629633548e+00 -6.2861352556635266e+00 1.3079634796920292e+00 -6.2861352556635248e+00 2.6671195940263717e+00 1.1181616807316337e+00 1.3079634796920292e+00 1.1181616807316339e+00 4.0789730343526847e+00  9.1934129520124461e+00 6.8145945934245122e-01 7.2709518282114138e-01 6.8145945934245133e-01 -2.8604768495425503e+00 2.2823115060496759e+00 7.2709518282114116e-01 2.2823115060496755e+00 4.8964491054057255e+00  7.0283498960810595e+00 4.2022547994717625e+00 -2.9169628348887092e-02 4.2022547994717625e+00 -8.8992967737329853e-01 2.7091307500691220e+00 -2.9169628348887110e-02 2.7091307500691220e+00 4.8605423650054940e+00  9.4718078592242687e+00 -1.4443400464252409e+00 6.7869106099810073e-01 -1.4443400464252418e+00 -3.0687008838406551e+00 1.1039144662311300e+00 6.7869106099810073e-01 1.1039144662311300e+00 4.4726838346854398e+00  5.9764606742977593e+00 5.4581699715561376e+00 2.8916042127749886e-01 5.4581699715561376e+00 -6.7767421464673294e-02 1.4533903825808785e+00 2.8916042127749886e-01 1.4533903825808787e+00 5.0605491563915441e+00  -3.0030809282661157e+00 1.6162867825073008e+00 1.4853514702095603e+00 1.6162867825073008e+00 7.6046390288439953e+00 1.5326827415163141e-01 1.4853514702095603e+00 1.5326827415163141e-01 5.4805188630530779e+00  -2.7603571089774159e+00 1.1132855826700965e+00 2.0610194011493967e+00 1.1132855826700965e+00 7.3168779049415278e+00 -1.3914454843604090e-01 2.0610194011493967e+00 -1.3914454843604102e-01 4.5614565772494915e+00  -2.1170940807583394e+00 3.0568672880035086e+00 1.5428932034809442e+00 3.0568672880035086e+00 5.9474056786640404e+00 -1.3475855146102075e-01 1.5428932034809437e+00 -1.3475855146102075e-01 5.0552185159590026e+00  -2.5085004180118480e+00 2.8144795585789906e+00 -2.6311816341439964e-01 2.8144795585789906e+00 8.3424377112291950e+00 2.0489493232965228e+00 -2.6311816341439970e-01 2.0489493232965228e+00 4.8152464798797689e+00  -2.7518366024092029e+00 2.6746559122248921e+00 5.5757515351541620e-01 2.6746559122248921e+00 7.6698661359607661e+00 1.1727632169721325e+00 5.5757515351541620e-01 1.1727632169721325e+00 5.5766832701667770e+00  -1.6607537468852356e+00 4.0093906124444709e+00 9.3879327016501357e-01 4.0093906124444709e+00 6.5507044322758272e+00 2.6420848634577893e-01 9.3879327016501357e-01 2.6420848634577893e-01 4.8957123477581357e+00  -1.8651636833843286e+00 4.0070243524174893e+00 5.1751105906863137e-01 4.0070243524174893e+00 8.0550774284457578e+00 1.8373252991916038e+00 5.1751105906863137e-01 1.8373252991916038e+00 4.3702722664141822e+00  -2.2704869485279868e+00 3.1573404957013458e+00 1.4684264826813534e-01 3.1573404957013458e+00 8.6489621901451912e+00 2.2975299207745921e+00 1.4684264826813537e-01 2.2975299207745921e+00 4.0090457377048523e+00  -3.2595846660836525e-01 5.1962282505009787e+00 6.4264056939427838e-01 5.1962282505009787e+00 6.2506233674444607e+00 1.6192791340821726e+00 6.4264056939427838e-01 1.6192791340821726e+00 4.2869791242796484e+00  9.2863070805192593e-01 6.0332273452954652e+00 8.2276485937124522e-01 6.0332273452954661e+00 5.1986316437963032e+00 1.1273536751164206e+00 8.2276485937124522e-01 1.1273536751164210e+00 4.4978734349076470e+00  8.0782906256226500e-02 4.1920583545137919e+00 1.9905885470711560e+00 4.1920583545137919e+00 1.5635011385305431e+00 -1.4939734841092131e-01 1.9905885470711564e+00 -1.4939734841092131e-01 6.7094585336939989e+00  2.5011061740443377e+00 3.8500335154883261e+00 1.9588300346294214e+00 3.8500335154883261e+00 -8.6767096637036645e-01 -9.3671434308693358e-01 1.9588300346294216e+00 -9.3671434308693313e-01 7.0766972558634231e+00  -1.0246110301077968e-01 4.7987618864599213e+00 1.2295949457370281e+00 4.7987618864599213e+00 3.6239795429402979e+00 -1.7070333994037937e-01 1.2295949457370281e+00 -1.7070333994037937e-01 5.1827299713483850e+00  3.9017642310309575e+00 1.9283183831304407e+00 2.0042812680471598e+00 1.9283183831304411e+00 -2.2919833306743920e+00 -1.9491625962514432e+00 2.0042812680471598e+00 -1.9491625962514434e+00 7.2058988903824517e+00  4.5969053571246885e+00 3.4009490878289889e-01 1.4961303221542446e+00 3.4009490878289894e-01 -3.0122606359904029e+00 -2.0467077054074343e+00 1.4961303221542446e+00 -2.0467077054074343e+00 6.3633757931479407e+00  5.7537037332207168e+00 3.6249234988627226e+00 1.7053796341017486e+00 3.6249234988627226e+00 -1.7598188840730271e+00 -6.2735731486329116e-01 1.7053796341017482e+00 -6.2735731486329138e-01 4.9634164587864529e+00  4.6535468056926410e+00 -1.5701893918230718e+00 9.7698510606335509e-01 -1.5701893918230718e+00 -2.7420511195951591e+00 -2.4853890622267119e+00 9.7698510606335509e-01 -2.4853890622267119e+00 6.3159198362652775e+00  3.5652026419440004e+00 -3.5106851842841071e+00 6.7111057347619338e-02 -3.5106851842841071e+00 -1.0789527902968252e+00 -2.8039372739911115e+00 6.7111057347619338e-02 -2.8039372739911115e+00 6.1621835513277166e+00  6.5716918557033335e+00 -6.9284445316676246e-01 9.7210669856682219e-01 -6.9284445316676246e-01 -2.8523334605798407e+00 -2.2647353337497607e+00 9.7210669856682241e-01 -2.2647353337497607e+00 5.6487339012804929e+00  4.0757506269452142e+00 -4.7775008577336955e+00 -1.7965843445122931e-01 -4.7775008577336955e+00 2.7780489689726301e-01 -2.4551212102247333e+00 -1.7965843445122925e-01 -2.4551212102247333e+00 5.3018794973274979e+00  1.8150806505935133e+00 6.0163487706040488e+00 8.9868036060019529e-01 6.0163487706040488e+00 4.0139671265043670e+00 7.8790423080104044e-01 8.9868036060019529e-01 7.8790423080104044e-01 4.0075723240973220e+00  2.6754651843258572e+00 6.2789569742136804e+00 9.9361032878788635e-01 6.2789569742136804e+00 3.5857499032186602e+00 8.8014719016912968e-01 9.9361032878788635e-01 8.8014719016912968e-01 3.8941458822052595e+00  3.1781890302789981e+00 6.1300860002577187e+00 5.1715490178555445e-01 6.1300860002577187e+00 2.6848281147151272e+00 3.3291641835172825e-01 5.1715490178555445e-01 3.3291641835172819e-01 3.7412890686926414e+00  3.1030096588095840e-01 5.4278036596217811e+00 7.2012772769552258e-01 5.4278036596217811e+00 4.9368523558041870e+00 3.2590740559114073e-01 7.2012772769552258e-01 3.2590740559114073e-01 4.4032958729287630e+00  -9.5237935376290928e-01 4.5260461230748463e+00 9.0525298323970071e-01 4.5260461230748463e+00 5.6102890864432666e+00 -5.6733327694046848e-02 9.0525298323970071e-01 -5.6733327694046799e-02 4.6469131723503265e+00  1.8402094316937940e+00 -5.7794962906764820e+00 -1.2793075442634097e-01 -5.7794962906764820e+00 3.2383663938094820e+00 -1.5052638605026145e+00 -1.2793075442634105e-01 -1.5052638605026143e+00 5.8349906655797854e+00  3.0586769789442529e+00 -5.5316802951709478e+00 -4.2635742122476195e-01 -5.5316802951709478e+00 1.9461445647315787e+00 -2.1369563450137594e+00 -4.2635742122476189e-01 -2.1369563450137599e+00 5.3046667828239062e+00  3.1846126323911830e+00 -5.8541767602483761e+00 7.6078626818303030e-01 -5.8541767602483752e+00 1.8262391393112798e+00 -1.1790457544597140e-01 7.6078626818303030e-01 -1.1790457544597140e-01 5.6747721392959258e+00  2.0101401530794108e-01 -5.4024334212127743e+00 8.8582282160452741e-01 -5.4024334212127743e+00 4.7240192370428460e+00 -1.5631122150475174e-01 8.8582282160452741e-01 -1.5631122150475169e-01 6.1957354349774425e+00  -2.6737206553904404e-02 -4.9324820883816427e+00 2.2361853255044459e+00 -4.9324820883816427e+00 6.0853313230396422e+00 3.6157641135763785e-01 2.2361853255044459e+00 3.6157641135763785e-01 4.7398874243194999e+00  9.3971267756846881e+00 -2.3819117789268174e+00 5.5625100475926192e-01 -2.3819117789268125e+00 -2.7819284169661698e+00 6.0255476045643852e-01 5.5625100475926248e-01 6.0255476045643852e-01 3.9569249935932347e+00  9.6039200243344869e+00 1.6012501365871665e+00 2.0711691389149917e-01 1.6012501365871665e+00 -3.1092363002964039e+00 4.6770519080744871e-01 2.0711691389149914e-01 4.6770519080744899e-01 4.3874114108084923e+00  4.4659589899599670e+00 -6.4515354607115558e+00 1.0326938570022581e+00 -6.4515354607115558e+00 2.5508449212881628e+00 8.3176975968404121e-01 1.0326938570022581e+00 8.3176975968404121e-01 3.7280880873845179e+00  5.3334872645917004e+00 -6.5098511467467208e+00 1.0020221155758073e+00 -6.5098511467467208e+00 2.3228265370209291e+00 8.1137986066115919e-01 1.0020221155758073e+00 8.1137986066115919e-01 2.8306507169523587e+00  8.1340546511607119e+00 -4.8237689663214303e+00 3.7224863332348018e-01 -4.8237689663214312e+00 -9.9027107257781322e-01 8.7154389831969614e-01 3.7224863332348029e-01 8.7154389831969614e-01 3.5712549146099053e+00  9.7906190927032721e+00 -1.8801652239265489e+00 3.7525838456084831e-01 -1.8801652239265489e+00 -2.7811793229406154e+00 5.6894562538173388e-01 3.7525838456084826e-01 5.6894562538173388e-01 3.5033471966095200e+00  7.8637532220849069e+00 3.4332257907595282e-01 1.0300477314425822e+00 3.4332257907595265e-01 -3.3041535471344292e+00 -1.0946721051966246e+00 1.0300477314425827e+00 -1.0946721051966246e+00 5.6162103440636404e+00  7.5681234696490662e+00 -2.1765982419739767e+00 7.6728757116908786e-01 -2.1765982419739767e+00 -2.8127413607283298e+00 -1.4926244840117395e+00 7.6728757116908786e-01 -1.4926244840117395e+00 5.5120604516350875e+00  6.9105938742714379e+00 3.2202274500051766e+00 1.0680036953236911e+00 3.2202274500051766e+00 -2.4207156727967445e+00 -3.7608808986541348e-01 1.0680036953236911e+00 -3.7608808986541359e-01 5.3898577567339245e+00  8.5619090450164741e+00 2.2277930037432112e+00 7.8116389553683274e-01 2.2277930037432112e+00 -2.9234763113428772e+00 2.1573382467686784e-02 7.8116389553683274e-01 2.1573382467686791e-02 4.7718514047285145e+00  4.7975227193872101e+00 5.1618503091945760e+00 8.8426358370701796e-01 5.1618503091945760e+00 -2.4822880270749909e-01 1.7149753786234118e-01 8.8426358370701785e-01 1.7149753786234109e-01 5.0713590687520647e+00  7.1689624274000421e+00 -3.6528234750972630e+00 8.0699984559734894e-01 -3.6528234750972630e+00 -2.1085206694284655e+00 -9.0549926148990079e-01 8.0699984559734894e-01 -9.0549926148990045e-01 5.4891230718794333e+00  5.7676066562700070e+00 -4.4771406346193787e+00 2.6308502948910351e-01 -4.4771406346193787e+00 -9.0640006639414050e-01 -1.7520596128973918e+00 2.6308502948910351e-01 -1.7520596128973918e+00 5.3643050914460924e+00  8.4556679209473860e+00 3.6613958507587552e+00 6.1744420188107108e-01 3.6613958507587552e+00 -1.9541325326416648e+00 3.9256570384230172e-01 6.1744420188107108e-01 3.9256570384230183e-01 3.5576409598513989e+00  9.5269966642290811e+00 7.4960337333143834e-01 3.5704633752728426e-01 7.4960337333143834e-01 -3.1807483355981545e+00 3.7286636425805691e-01 3.5704633752728426e-01 3.7286636425805691e-01 4.2292824706829553e+00  9.3744161933366303e+00 -2.0222780443863901e+00 4.5473985744069739e-01 -2.0222780443863906e+00 -2.8350677694629360e+00 7.3483134052455479e-01 4.5473985744069739e-01 7.3483134052455479e-01 3.8752679073648122e+00  8.4472049933577047e+00 -2.6314087584073329e+00 7.2677529962025123e-01 -2.6314087584073329e+00 -2.7141370248304004e+00 2.1002340344695014e-01 7.2677529962025123e-01 2.1002340344695014e-01 4.7874243688532401e+00  6.0964045622245777e+00 -4.9423071123576801e+00 7.3987622132510544e-01 -4.9423071123576801e+00 -7.6755134632873701e-01 3.0089136310284598e-01 7.3987622132510544e-01 3.0089136310284592e-01 5.4219234467001556e+00  6.1561922683814609e+00 5.6181544885803385e+00 3.3735839346275115e-01 5.6181544885803385e+00 1.9039058666614034e-01 2.3771818320109983e-01 3.3735839346275115e-01 2.3771818320110000e-01 3.7983444501990404e+00  7.8790355298964014e+00 4.5843583771601981e+00 6.0467977534832962e-01 4.5843583771601981e+00 -1.1879874322103492e+00 8.2802740576156400e-02 6.0467977534832984e-01 8.2802740576156345e-02 3.3731581552012297e+00  4.0131898858359172e+00 5.9272225388364479e+00 2.8530002775249558e-01 5.9272225388364479e+00 1.5361981267168647e+00 2.9026373716917253e-01 2.8530002775249558e-01 2.9026373716917259e-01 4.1512649230544936e+00  1.8200128931017336e+00 5.6581823561018494e+00 6.8419823631341170e-01 5.6581823561018494e+00 2.7346906905474273e+00 2.1248426952928828e-01 6.8419823631341170e-01 2.1248426952928828e-01 4.7804972661302285e+00  5.8834702812374688e+00 5.9228729821453134e+00 8.2089553400429105e-01 5.9228729821453134e+00 6.8381567936878784e-01 1.7916341331679317e-01 8.2089553400429105e-01 1.7916341331679309e-01 3.7383409019940803e+00  8.7150872550464982e+00 3.8894040143181998e+00 5.3854672947860682e-01 3.8894040143181998e+00 -1.8108251144728207e+00 2.4548121778703300e-01 5.3854672947860682e-01 2.4548121778703300e-01 3.4117959017699984e+00  1.0232007146353233e+01 -1.1655258241077435e+00 1.0279932088773772e-01 -1.1655258241077435e+00 -2.9725552881841004e+00 5.3054290629198220e-01 1.0279932088773772e-01 5.3054290629198220e-01 3.4432667221689006e+00  8.1063137218422003e+00 -4.6781819574888388e+00 4.6489332736078870e-01 -4.6781819574888388e+00 -1.0421848175938657e+00 1.0824452431272065e+00 4.6489332736078870e-01 1.0824452431272065e+00 3.5981061097512388e+00  8.7563964304715434e+00 3.4618999524931500e+00 4.3321085218015848e-01 3.4618999524931500e+00 -2.2101786183899916e+00 2.3015660816224659e-01 4.3321085218015853e-01 2.3015660816224656e-01 3.9304440637994458e+00  1.0033897906321897e+01 1.2234104034987032e+00 -2.6746217577386006e-02 1.2234104034987032e+00 -3.0821290836098996e+00 2.3950589021901236e-01 -2.6746217577386006e-02 2.3950589021901236e-01 3.7537890979087272e+00  7.7258679573217384e+00 4.4257101600641793e+00 6.4275730436111178e-01 4.4257101600641793e+00 -1.5665887418197808e+00 5.2510746951034259e-01 6.4275730436111178e-01 5.2510746951034259e-01 4.4824769257890180e+00  4.5786377163043133e+00 6.2209772662228140e+00 6.6993669356923924e-01 6.2209772662228140e+00 1.5016131552935332e+00 5.4080235929286258e-01 6.6993669356923924e-01 5.4080235929286224e-01 4.5565287058330144e+00  4.5936685300279372e+00 -6.2866823044368889e+00 1.2973149712459529e+00 -6.2866823044368889e+00 2.5658090804689855e+00 9.5741890936709750e-01 1.2973149712459529e+00 9.5741890936709750e-01 3.2260506949417831e+00  2.0678667616073834e+00 -6.0281011694775204e+00 1.7975757099698184e+00 -6.0281011694775204e+00 5.5293624503843049e+00 1.0803711727498089e+00 1.7975757099698189e+00 1.0803711727498089e+00 3.0414337869351713e+00  4.6807413403230207e+00 -5.9132758247794586e+00 1.3638891643541031e+00 -5.9132758247794595e+00 1.5591906192927310e+00 1.1325924060454460e+00 1.3638891643541031e+00 1.1325924060454460e+00 4.4590136430585279e+00  3.1523746977302132e+00 6.4418810164886544e+00 9.8341267218368500e-01 6.4418810164886544e+00 3.1829905849824258e+00 6.3632669594363955e-01 9.8341267218368500e-01 6.3632669594363966e-01 4.1285587277818268e+00  -6.3921765816044507e-01 4.7800211261097436e+00 8.2564601655420078e-01 4.7800211261097436e+00 4.9727916928511293e+00 -1.3652386190923302e-01 8.2564601655420078e-01 -1.3652386190923302e-01 4.8242873080304971e+00  1.8155078627802268e+00 -2.0477323652054573e+00 -1.1837234865263340e+00 -2.0477323652054573e+00 -1.4751818610580538e+00 -6.3933873028987231e-01 -1.1837234865263340e+00 -6.3933873028987231e-01 2.4164233544168296e+00  -1.2949432850966729e+00 2.3457225516346965e+00 1.2378342520485437e+00 2.3457225516346965e+00 9.9913879170376985e-01 5.1427787988805429e-01 1.2378342520485437e+00 5.1427787988805429e-01 3.2781346782852165e+00  -2.0097602776735908e+00 -1.0234225220767142e-01 -7.2331038696016858e-01 -1.0234225220767149e-01 2.1456167271472286e+00 7.0039753259291093e-01 -7.2331038696016892e-01 7.0039753259291093e-01 1.1855613879780533e+00  -2.3394532435863571e+00 1.0293573456843632e+00 1.3977358197809093e+00 1.0293573456843632e+00 2.0379143574028848e+00 8.1477103548880148e-01 1.3977358197809093e+00 8.1477103548880148e-01 3.4913194882180605e+00  -1.3171991106178533e+00 -1.6856734874392529e+00 1.5984953737953818e+00 -1.6856734874392529e+00 1.9213273223688843e+00 2.1159070492930248e+00 1.5984953737953815e+00 2.1159070492930248e+00 3.6353531208896595e+00  -1.2394811213180175e+00 2.3237095355767385e+00 6.9142873296586596e-02 2.3237095355767385e+00 1.8707273914816023e+00 1.2034628872161752e+00 6.9142873296586610e-02 1.2034628872161752e+00 1.7603998179988902e+00  6.3649371089105899e-01 2.9283779038719895e+00 4.3350522623514759e-01 2.9283779038719895e+00 5.3710768792665987e-02 1.1635134892025463e+00 4.3350522623514759e-01 1.1635134892025463e+00 2.2021020114861081e+00  2.7061839410569690e+00 3.1955461007791780e-01 6.0515350311610872e-01 3.1955461007791780e-01 -2.6798699604652105e+00 4.3433521135130360e-01 6.0515350311610883e-01 4.3433521135130360e-01 2.8065314686895841e+00  -2.4444756944685371e+00 1.6859993356356238e+00 -3.9717864286185162e-01 1.6859993356356238e+00 3.3670777981834736e+00 1.1949997430787895e+00 -3.9717864286185162e-01 1.1949997430787895e+00 3.0267924310469518e+00  3.5487731802319420e+00 5.9383636756787750e-01 6.4135927988760366e-01 5.9383636756787761e-01 -2.7707391848378173e+00 -2.2143501696605932e-02 6.4135927988760366e-01 -2.2143501696605943e-02 2.6307366796384128e+00  -2.3679340321602833e+00 -9.6163979842284564e-01 -1.0987806530481807e+00 -9.6163979842284564e-01 2.6280981217485797e+00 5.3742215434332086e-01 -1.0987806530481807e+00 5.3742215434332086e-01 2.5795301392195271e+00  -2.6912605595940224e+00 4.5133141821011041e-01 -4.1307106936565269e-01 4.5133141821011041e-01 2.9058855259135838e+00 1.0004485319708765e+00 -4.1307106936565269e-01 1.0004485319708765e+00 2.7786805649422903e+00  -1.5817040745770359e+00 -1.7232376172978610e+00 -9.6953521558447164e-01 -1.7232376172978605e+00 1.5181900529410775e+00 7.2694373761416464e-01 -9.6953521558447164e-01 7.2694373761416464e-01 2.1904958213712948e+00  -2.3397723161416897e+00 -4.8428523904651177e-01 8.8586610203715266e-01 -4.8428523904651166e-01 2.4363224026536443e+00 6.3442800823298351e-01 8.8586610203715244e-01 6.3442800823298351e-01 2.0541295790780416e+00  -1.4664932971966549e+00 2.6453643020881690e+00 6.7854552506860166e-01 2.6453643020881690e+00 1.9037065005423708e+00 7.9740767033241877e-01 6.7854552506860144e-01 7.9740767033241877e-01 3.2680483715618904e+00  2.2576969977607986e-01 3.2900903071944110e+00 5.2184300593318844e-01 3.2900903071944110e+00 4.2392684023685245e-01 7.4945888435352503e-01 5.2184300593318844e-01 7.4945888435352503e-01 3.2000212627029794e+00  -2.3483779916490249e-01 -2.0256153610125831e+00 -1.6588074062059819e+00 -2.0256153610125831e+00 8.4659374662099074e-01 -5.5131005820175516e-01 -1.6588074062059819e+00 -5.5131005820175516e-01 1.3921531301396173e+00  -7.4539313286914555e-01 3.3230379488783681e+00 1.1246933161125128e-01 3.3230379488783681e+00 1.9299050936270539e+00 1.1189654617000642e+00 1.1246933161125122e-01 1.1189654617000642e+00 3.3312476915798039e+00  1.4368629955252759e+00 3.4798441114262606e+00 4.0471484424833548e-01 3.4798441114262606e+00 -2.9759923839060082e-01 8.3180552966279264e-01 4.0471484424833548e-01 8.3180552966279286e-01 3.4644289501190122e+00  3.1531491078591456e-01 -1.8572099490207210e+00 7.2435821736778636e-02 -1.8572099490207210e+00 -3.9457810674506788e-01 1.0938360521446122e+00 7.2435821736778649e-02 1.0938360521446122e+00 1.5294695978392574e+00  2.0455129492505137e+00 2.3373780673585109e+00 3.5068699883767668e-01 2.3373780673585127e+00 -1.6428668169177763e+00 9.4003114650654085e-01 3.5068699883767668e-01 9.4003114650654085e-01 2.9452084407452364e+00  -2.2029714616047893e+00 -3.4737019145811404e-01 1.9755226006280497e+00 -3.4737019145811404e-01 2.7546512618332546e+00 1.4023800008060299e+00 1.9755226006280493e+00 1.4023800008060299e+00 3.5687078065656932e+00  1.3810769559412320e-01 -2.0201568969052497e+00 -1.9766330887037031e+00 -2.0201568969052497e+00 7.7077719596581717e-01 -5.5581579753585764e-01 -1.9766330887037031e+00 -5.5581579753585764e-01 1.4051468907812477e+00  -4.2056233236851626e-01 -1.9256816868972311e+00 -4.1967811094920232e-01 -1.9256816868972313e+00 1.7671603234978547e-01 3.0398549452202117e-01 -4.1967811094920232e-01 3.0398549452202117e-01 1.4529365757672612e+00  8.1703353531426923e-02 2.5405989297079885e+00 9.5237668954005006e-01 2.5405989297079885e+00 -4.7969697745014922e-01 2.0856655882446590e-01 9.5237668954005006e-01 2.0856655882446587e-01 3.1067933197217368e+00  3.8826154450833621e+00 4.6745479491433867e-01 7.9994493142988099e-01 4.6745479491433867e-01 -2.8678626096644688e+00 8.0805220175854187e-01 7.9994493142988099e-01 8.0805220175854187e-01 3.2149690600480638e+00  2.0939634090222849e+00 -1.5316377197663034e+00 -1.3244194402901552e+00 -1.5316377197663031e+00 -8.7755530815992544e-01 -1.4729473604887355e+00 -1.3244194402901552e+00 -1.4729473604887355e+00 7.8637836379770121e-01  2.9438439965932552e+00 -2.4281021997864878e+00 -1.9362057321377950e+00 -2.4281021997864873e+00 -3.6429514917289091e-01 -1.8748114977096837e+00 -1.9362057321377946e+00 -1.8748114977096835e+00 1.7570392709687961e+00  2.2900277944392204e+00 7.5595830051353619e-01 5.4427974255513989e-01 7.5595830051353619e-01 -2.0765363768234235e+00 7.9749013448837269e-01 5.4427974255513989e-01 7.9749013448837269e-01 1.6033629232950515e+00  1.0075916803537783e+00 1.4459288396292445e+00 1.1043706609820605e+00 1.4459288396292445e+00 -1.8532015780076947e+00 -5.4963411995214165e-02 1.1043706609820603e+00 -5.4963411995214297e-02 2.5281557813443931e+00  2.6290207417931053e+00 2.0925340817687372e+00 7.7784078220233099e-01 2.0925340817687372e+00 -1.8957949550327220e+00 5.3596159079506045e-01 7.7784078220233099e-01 5.3596159079506045e-01 2.3873957590210630e+00  1.2528278722132455e-01 -2.1000041635734430e+00 1.2720906888206494e+00 -2.1000041635734426e+00 6.3606754144212985e-01 2.6966162921594719e+00 1.2720906888206496e+00 2.6966162921594719e+00 3.5474650920265827e+00  -2.4823136585346770e+00 7.9796081699294263e-01 8.7475673465781500e-01 7.9796081699294263e-01 2.6081659110801687e+00 7.9871183524132217e-01 8.7475673465781500e-01 7.9871183524132183e-01 2.7320743764621178e+00  -1.4984416727801725e-01 -1.7566413105650194e+00 1.4326422425459215e+00 -1.7566413105650194e+00 8.0132068162001557e-01 1.6701922245501228e+00 1.4326422425459215e+00 1.6701922245501228e+00 1.4443604062818116e+00  6.6455516666359959e-02 -2.2863318904440537e+00 -1.2081120543517465e+00 -2.2863318904440537e+00 1.3378483073810232e-01 7.9719276164234940e-03 -1.2081120543517465e+00 7.9719276164234940e-03 2.0176749009518202e+00  2.9330200344514412e+00 2.2959272178894352e+00 6.3640674228864602e-01 2.2959272178894352e+00 -2.0679300139803063e+00 7.4144328520665204e-01 6.3640674228864613e-01 7.4144328520665204e-01 3.1859529174349510e+00  -2.1073264698551215e+00 2.2227525153677967e+00 -1.6884202878847404e-01 2.2227525153677967e+00 3.2175231829955471e+00 1.0783080427451004e+00 -1.6884202878847401e-01 1.0783080427451002e+00 3.1201026894056310e+00  1.1004727562047221e+00 5.0007618471158177e-01 1.1162285619010968e+00 5.0007618471158177e-01 -2.0792488067037245e+00 9.1778020765935581e-02 1.1162285619010968e+00 9.1778020765935581e-02 1.9004335121013598e+00  -1.6098406058810202e+00 -1.2246498735677562e+00 9.6438461677583864e-01 -1.2246498735677562e+00 1.8657913921374241e+00 1.4899826428440470e+00 9.6438461677583864e-01 1.4899826428440470e+00 1.8664450876092376e+00  -6.4286873959290647e-01 3.2301995180198078e+00 2.7494438837776003e-01 3.2301995180198078e+00 1.6831252089878221e+00 1.0521023406216454e+00 2.7494438837776003e-01 1.0521023406216454e+00 2.9433608903998687e+00  1.8853928637001851e+00 1.3733449418887684e+00 5.0193068763011706e-01 1.3733449418887684e+00 -1.3654189579574685e+00 1.3304822159741876e+00 5.0193068763011706e-01 1.3304822159741876e+00 1.1676385691011251e+00  2.2035920098262980e+00 2.4447396635636925e-02 9.0102964670233332e-01 2.4447396635636935e-02 -1.9363838674809983e+00 9.6969763538722864e-01 9.0102964670233332e-01 9.6969763538722864e-01 1.3453923902942821e+00  2.3534190912728881e+00 -1.1969860402922435e-01 9.7401742542963321e-01 -1.1969860402922435e-01 -2.2074339118268473e+00 3.8102763441721399e-01 9.7401742542963343e-01 3.8102763441721421e-01 1.5725940106788805e+00  4.5693460230907998e+00 -1.5617441573932551e+00 -1.3237970007454620e+00 -1.5617441573932556e+00 -2.1973755350298094e+00 -1.5561419862679653e+00 -1.3237970007454627e+00 -1.5561419862679653e+00 2.4058203435699959e+00  2.6958477627236581e+00 -2.2042791208785997e+00 -1.7647468273621629e+00 -2.2042791208785997e+00 -1.0793469506991609e+00 -1.0252251284046121e+00 -1.7647468273621643e+00 -1.0252251284046121e+00 1.5078412446140457e+00  3.9542718456226975e+00 -2.2656277251438719e+00 -1.6828851079388989e+00 -2.2656277251438719e+00 -7.0323290937568916e-01 -2.3009440896921078e+00 -1.6828851079388991e+00 -2.3009440896921078e+00 1.7593139464315881e+00  8.8775920956645249e-01 -1.6180617338864309e+00 3.9629680299281878e-01 -1.6180617338864314e+00 -4.4200916421654268e-01 3.0851391553118428e+00 3.9629680299281878e-01 3.0851391553118428e+00 3.4652685522005595e+00  1.0442245864275550e+00 -2.0576351921094829e+00 4.6886548602492695e-01 -2.0576351921094829e+00 -2.2643062682074658e-01 2.6567669525771036e+00 4.6886548602492706e-01 2.6567669525771036e+00 2.7855920170031192e+00  -1.7150095149772304e-01 -1.5583301446957094e+00 8.3530287989570873e-01 -1.5583301446957092e+00 2.6159081102914854e-02 2.6047282046290072e+00 8.3530287989570873e-01 2.6047282046290072e+00 3.5958858272910854e+00  3.2414598171557979e-01 3.8418215304932096e-01 1.3978357725405655e+00 3.8418215304932085e-01 -5.1122747270750246e-01 -3.8250807506288137e-01 1.3978357725405655e+00 -3.8250807506288137e-01 3.8998294916017728e-01  5.3467202798209372e-02 6.3425473837199309e-01 1.5643490298859875e+00 6.3425473837199309e-01 -1.5971529646781085e-01 -4.8754257203571016e-02 1.5643490298859875e+00 -4.8754257203571016e-02 5.0161348866809075e-01  1.8148791416419310e+00 -7.9843952080957903e-02 1.2381211696728898e+00 -7.9843952080957903e-02 -2.3040113873993455e+00 -1.0626071989641518e-01 1.2381211696728898e+00 -1.0626071989641518e-01 1.8692275595136552e+00  4.2035742543290858e-02 2.6064102702357985e+00 -2.2331015873906132e-01 2.6064102702357985e+00 7.1367910831036585e-01 1.2492587317215236e+00 -2.2331015873906132e-01 1.2492587317215236e+00 1.5283775827712296e+00  1.2259621535045695e+00 2.5126648563726719e+00 1.1444166307349095e-01 2.5126648563726719e+00 -3.9796680248361294e-01 1.3493063182041685e+00 1.1444166307349095e-01 1.3493063182041685e+00 1.4955246433899509e+00  1.7578756046314568e+00 2.6291057954738122e+00 5.7327146373739291e-01 2.6291057954738122e+00 -1.0738399624182586e+00 8.5951598452124311e-01 5.7327146373739291e-01 8.5951598452124311e-01 2.2073019842599546e+00  1.9317210863081415e+00 2.1295739196221186e+00 3.9195916021083826e-01 2.1295739196221186e+00 -1.2909198104005115e+00 1.1442372161921306e+00 3.9195916021083826e-01 1.1442372161921306e+00 1.7060830083444143e+00  2.5268719923687319e+00 1.4345874628605724e+00 7.8159383317270892e-01 1.4345874628605724e+00 -2.0736889820921847e+00 8.4123352451479738e-01 7.8159383317270892e-01 8.4123352451479738e-01 2.0923605312449496e+00  -1.3970848338461914e+00 1.4711496868695351e+00 -8.8913452173232255e-01 1.4711496868695351e+00 1.9790335377473720e+00 1.1273410828181130e+00 -8.8913452173232255e-01 1.1273410828181130e+00 1.3184573159784678e+00  -4.5166557304349336e-01 2.2960822280621977e+00 -7.5174781312343475e-01 2.2960822280621977e+00 1.3621087530039448e+00 1.2351945871645140e+00 -7.5174781312343475e-01 1.2351945871645140e+00 1.3597047610100617e+00  -7.8740672976461645e-01 2.5667147349487771e+00 5.5349770673065762e-02 2.5667147349487771e+00 1.3272157186298987e+00 1.2731059610417315e+00 5.5349770673065755e-02 1.2731059610417315e+00 2.0506283651506640e+00  -1.2817712686035818e+00 -9.1628902664302692e-01 -1.5228200032790944e+00 -9.1628902664302692e-01 1.9097615898188569e+00 6.8166948400224747e-01 -1.5228200032790944e+00 6.8166948400224714e-01 9.3853291625070856e-01  -1.6205628658920150e+00 5.5849679076256309e-01 -1.2650398205117610e+00 5.5849679076256331e-01 2.3004974280295731e+00 9.0070921365386880e-01 -1.2650398205117610e+00 9.0070921365386880e-01 1.0214610489052753e+00  -2.0935803648220808e+00 1.3391572617330483e+00 -3.6358147847781498e-02 1.3391572617330485e+00 2.2751718480238545e+00 9.5677368988356981e-01 -3.6358147847781512e-02 9.5677368988356981e-01 1.6178819959784922e+00  1.0811595650388990e+00 -2.4161220143666804e+00 -2.1462634945660914e+00 -2.4161220143666804e+00 -4.3119573902850906e-02 -4.9514957785695357e-01 -2.1462634945660914e+00 -4.9514957785695357e-01 1.8761619249397981e+00  -2.5015124044557430e-01 -1.8111834741441637e+00 -1.9859459251803249e+00 -1.8111834741441639e+00 8.9736131624253568e-01 4.3163147640422250e-01 -1.9859459251803249e+00 4.3163147640422250e-01 1.3128662480133042e+00  -1.2339919382079656e+00 -1.3089335709094980e+00 -1.4365926520346197e+00 -1.3089335709094980e+00 1.1926829280928519e+00 2.1329833232872342e-01 -1.4365926520346197e+00 2.1329833232872344e-01 1.5242902958347482e+00  1.3784708076037036e+00 -2.5498674633893139e+00 -1.9365488318740312e+00 -2.5498674633893144e+00 2.7159570180697828e-01 -1.1658483852227504e+00 -1.9365488318740312e+00 -1.1658483852227501e+00 1.6680329013332902e+00  2.8261077027436081e+00 -8.3300281152297539e-01 -1.1359947136579869e+00 -8.3300281152297528e-01 -1.4114632747728264e+00 -1.7598302242016022e+00 -1.1359947136579869e+00 -1.7598302242016022e+00 8.9156816666642391e-01  3.9345396039702853e+00 -8.5751641248096389e-01 -1.1829321292913795e+00 -8.5751641248096400e-01 -7.4035223432013098e-01 -2.5802337778594362e+00 -1.1829321292913795e+00 -2.5802337778594362e+00 5.0642373182675948e-01  3.1918607641905989e+00 -1.7543977836762801e+00 -1.6205419317505743e+00 -1.7543977836762803e+00 -3.9485005988409627e-01 -2.2489290932286892e+00 -1.6205419317505743e+00 -2.2489290932286892e+00 8.0092531530460376e-01  2.3975086320610219e+00 -1.3968481860259119e+00 -1.0069358869372360e+00 -1.3968481860259119e+00 -2.1218660133867910e+00 -7.1319366527888084e-01 -1.0069358869372360e+00 -7.1319366527888084e-01 2.4741006683998621e+00  2.8174517359071345e+00 -1.3012824186102345e+00 -1.1740473765917945e+00 -1.3012824186102345e+00 -1.9180878786234139e+00 -1.2096663918966144e+00 -1.1740473765917945e+00 -1.2096663918966144e+00 1.8808939291671718e+00  1.3583059226762153e+00 -1.8171491353425389e+00 -1.3036929322237052e+00 -1.8171491353425389e+00 -1.0029124138402719e+00 -9.0376674287205128e-01 -1.3036929322237052e+00 -9.0376674287205128e-01 1.7148130167552755e+00  1.0721395341212929e+00 -1.8499191052196309e+00 3.3712923655127403e-01 -1.8499191052196307e+00 -7.3490955409642333e-01 1.8518583307568286e+00 3.3712923655127403e-01 1.8518583307568286e+00 1.7056140366480241e+00  1.4539438353182417e+00 -1.2690060608394007e+00 -5.8236526179622838e-01 -1.2690060608394007e+00 -1.9160432292693839e+00 6.7437757662493200e-02 -5.8236526179622838e-01 6.7437757662493270e-02 2.0628675967074783e+00  9.6783322974957398e-01 -1.7400121285771144e+00 -7.6623825345734320e-01 -1.7400121285771144e+00 -1.1903639036613440e+00 -3.7096891500479601e-01 -7.6623825345734320e-01 -3.7096891500479601e-01 1.9038187520956853e+00  2.7329424641954259e-01 -1.8115351910003508e+00 9.5086985536357149e-01 -1.8115351910003508e+00 1.2127685469560538e-01 1.9178755137999075e+00 9.5086985536357149e-01 1.9178755137999075e+00 1.7880365671531189e+00  -1.0898788707130891e+00 -1.2480266523483514e+00 1.5790858397937031e+00 -1.2480266523483514e+00 9.8913186030103828e-01 2.1467116031795164e+00 1.5790858397937035e+00 2.1467116031795164e+00 3.4117164001165108e+00  -3.8594584320464159e-01 -1.4602131856602338e+00 1.2679015079515028e+00 -1.4602131856602338e+00 3.5897297594491168e-01 2.5771260871752637e+00 1.2679015079515026e+00 2.5771260871752637e+00 3.5429399502471726e+00  -5.6819848876317303e-01 -1.9580440144153777e+00 1.2133350248685688e+00 -1.9580440144153777e+00 8.4565040211074116e-01 2.2873207351139997e+00 1.2133350248685690e+00 2.2873207351139997e+00 3.7311740218465039e+00  -2.1004870439182670e+00 -8.2148076459283703e-01 1.2431629900749965e+00 -8.2148076459283703e-01 1.7840380248344410e+00 1.5628793639135126e+00 1.2431629900749965e+00 1.5628793639135126e+00 3.2527401465372989e+00  -1.6863479005157933e+00 -1.0717416479470976e+00 1.6098066019676378e+00 -1.0717416479470976e+00 1.3784286482403638e+00 1.6048540422858741e+00 1.6098066019676383e+00 1.6048540422858741e+00 3.4912011147316484e+00  -1.9310551632062778e+00 -1.0550095280401219e+00 1.7305497073830689e+00 -1.0550095280401219e+00 2.2094132805432460e+00 1.6126005757198434e+00 1.7305497073830689e+00 1.6126005757198434e+00 3.6537042729988647e+00  -2.0112327759546229e+00 4.2069202278369361e-01 1.3098354558399561e+00 4.2069202278369361e-01 1.2361603623857380e+00 1.0453488283817018e+00 1.3098354558399563e+00 1.0453488283817018e+00 2.2865638375460184e+00  -2.2582342497268271e+00 -9.5899389693416298e-02 8.3345315412991883e-01 -9.5899389693416298e-02 1.1329003244603122e+00 1.0469072320487269e+00 8.3345315412991883e-01 1.0469072320487269e+00 3.1527750639917720e+00  -2.4435201794975216e+00 3.5282017071321414e-01 1.7499543661564183e+00 3.5282017071321414e-01 2.3304308740469915e+00 1.1145475411199670e+00 1.7499543661564183e+00 1.1145475411199670e+00 4.1349992864104861e+00  -1.0630970588867135e+00 1.1124818178781952e+00 7.6700920993942268e-01 1.1124818178781952e+00 2.2031473749155056e-01 1.1074246594127954e+00 7.6700920993942268e-01 1.1074246594127954e+00 1.5079293284802049e+00  -1.7949706324816501e+00 8.2338955908113520e-01 1.2250549687311691e+00 8.2338955908113520e-01 1.2534017732210276e+00 1.0028410215563872e+00 1.2250549687311691e+00 1.0028410215563872e+00 1.5305078938543182e+00  -1.9156966937352364e+00 1.8401895037956175e+00 1.3372819202795978e+00 1.8401895037956175e+00 1.6256842642153035e+00 6.4965127089604169e-01 1.3372819202795974e+00 6.4965127089604158e-01 3.4111279474430964e+00  -1.4023472604424145e-01 1.5969462709365645e+00 1.3144647208631077e+00 1.5969462709365643e+00 -1.6306261371994560e-01 3.9557123996909183e-01 1.3144647208631077e+00 3.9557123996909188e-01 1.1018425054237457e+00  -5.7757600930533581e-01 1.5327968305606501e+00 1.1507888270246467e+00 1.5327968305606501e+00 8.7592681100133352e-02 7.1170320200182280e-01 1.1507888270246467e+00 7.1170320200182302e-01 1.3302428815329335e+00  -5.5566770890516104e-01 2.5779356910960920e+00 9.6863893791502631e-01 2.5779356910960920e+00 1.8190811944058113e-01 4.0732700344925055e-01 9.6863893791502631e-01 4.0732700344925055e-01 2.9744935164110351e+00  5.9408238147902548e-01 1.2903173443831195e+00 1.7115485908341732e+00 1.2903173443831195e+00 -8.9232984796450976e-01 2.4584016732468333e-01 1.7115485908341732e+00 2.4584016732468314e-01 1.4038404091265804e+00  -1.7584614945112814e-01 1.4054063269307446e+00 1.4849112206445934e+00 1.4054063269307449e+00 -8.5059190684727753e-02 -2.7126268232210615e-01 1.4849112206445934e+00 -2.7126268232210615e-01 7.7819679822480647e-01  5.3960733912986225e-01 2.1170319402708313e+00 1.0946547352744838e+00 2.1170319402708313e+00 -1.0941021076126907e+00 -8.1047106855271334e-02 1.0946547352744838e+00 -8.1047106855271334e-02 2.8479668521213006e+00  9.9218130721414610e-01 9.6634437695493447e-01 1.1423004646364348e+00 9.6634437695493480e-01 -1.9766882010340163e+00 -1.8468969558519732e-01 1.1423004646364348e+00 -1.8468969558519732e-01 2.4877216837901428e+00  2.9726678886683966e+00 -1.7918462321588940e-01 9.6661383529147649e-01 -1.7918462321588938e-01 -2.5362637939814068e+00 4.3097324790743047e-02 9.6661383529147660e-01 4.3097324790743033e-02 1.9499665571837641e+00  3.6900711318870649e+00 -4.3614252603943965e-01 1.0190017526287776e+00 -4.3614252603943965e-01 -2.8096624006684698e+00 1.6729903134090715e-01 1.0190017526287776e+00 1.6729903134090715e-01 2.6991365868976605e+00  2.6074122628092065e+00 5.5114633047122807e-01 8.6348646125557726e-01 5.5114633047122807e-01 -2.3984852306557789e+00 4.1931312678464350e-01 8.6348646125557726e-01 4.1931312678464372e-01 2.0586700094077397e+00  3.8588984239736086e+00 -3.2597092782247533e-01 1.1023861384962637e+00 -3.2597092782247528e-01 -2.8416087833358477e+00 5.2152398113869913e-01 1.1023861384962637e+00 5.2152398113869913e-01 3.0232566378711527e+00  3.4036575021543127e+00 -1.8974489272009420e-01 9.5364432395567045e-01 -1.8974489272009420e-01 -2.8286808348830679e+00 6.2302673278712939e-01 9.5364432395567045e-01 6.2302673278712939e-01 3.2265194249380280e+00  3.8953194224779057e+00 6.3794203676218519e-01 8.2375373021013498e-01 6.3794203676218519e-01 -2.8965590186288153e+00 4.0924093407280732e-01 8.2375373021013498e-01 4.0924093407280732e-01 3.2993601358739078e+00  2.8338216085904659e+00 -2.0353772363853090e-01 8.7941233403448715e-01 -2.0353772363853076e-01 -2.7329282587398422e+00 6.2610458781814970e-01 8.7941233403448749e-01 6.2610458781814970e-01 3.0565084589208027e+00  2.4324009543935503e+00 -2.7777839232551016e-01 9.2989248818144432e-01 -2.7777839232551016e-01 -2.6050148344779509e+00 2.1748674323799644e-01 9.2989248818144432e-01 2.1748674323799647e-01 2.8350194458667972e+00  3.2769489271783576e+00 6.6937538079024339e-01 7.3033770254740082e-01 6.6937538079024350e-01 -2.7083711327363016e+00 6.8265401714013485e-01 7.3033770254740082e-01 6.8265401714013485e-01 2.8436033055427425e+00  1.7999034587616611e+00 5.7944704241189393e-01 1.0857313476145500e+00 5.7944704241189382e-01 -2.3686389017244287e+00 1.7415851407147520e-02 1.0857313476145500e+00 1.7415851407147510e-02 2.7698165347672385e+00  5.3473484024864140e-02 -1.7424234621954919e+00 -2.7001170541509384e-01 -1.7424234621954919e+00 -5.6481873374291469e-01 6.4101693152446404e-01 -2.7001170541509384e-01 6.4101693152446404e-01 1.9142978333212477e+00  4.1228007836900638e-01 -1.9735678037360238e+00 -5.1963995367156690e-01 -1.9735678037360238e+00 -8.0252804743734130e-01 -3.5363798221732357e-01 -5.1963995367156701e-01 -3.5363798221732357e-01 1.9419591072600801e+00  1.0140272742349077e-01 -2.0904731248327049e+00 -1.0032603939421105e+00 -2.0904731248327049e+00 -1.9083347401170531e-01 -5.2948631110888343e-02 -1.0032603939421105e+00 -5.2948631110888343e-02 1.9548239028603769e+00  8.0783880727351165e-01 -1.8218860480456311e+00 -1.1212634609754204e+00 -1.8218860480456311e+00 -1.0700252377189587e+00 -3.7699199192863536e-01 -1.1212634609754204e+00 -3.7699199192863536e-01 2.1799765652364580e+00  7.8508110417935117e-01 -2.0462032205431679e+00 -1.3301675450473818e+00 -2.0462032205431679e+00 -3.8907274677441239e-01 -6.0173965835878651e-01 -1.3301675450473820e+00 -6.0173965835878651e-01 1.4651535112598737e+00  -1.2134746211541718e+00 2.6113260348816407e+00 1.0784602336840685e+00 2.6113260348816407e+00 1.4159321878756799e+00 5.5337403852342404e-01 1.0784602336840687e+00 5.5337403852342404e-01 3.5754637390614019e+00  -1.8222445494849817e+00 2.2279217645173821e+00 1.1313300902364865e+00 2.2279217645173821e+00 2.1471153730330763e+00 6.9862363498649604e-01 1.1313300902364858e+00 6.9862363498649616e-01 3.5224649814136235e+00  -3.8557300465097494e-01 2.9664315068918001e+00 1.0088226306904848e+00 2.9664315068918001e+00 6.5317938727633462e-01 4.9623061199531815e-01 1.0088226306904848e+00 4.9623061199531815e-01 3.4617874813818150e+00  -6.7061173575858624e-01 3.1823093903525108e+00 6.0694964513010308e-01 3.1823093903525108e+00 1.4242504192282992e+00 7.7210146096518273e-01 6.0694964513010308e-01 7.7210146096518273e-01 3.2889731455159015e+00  3.8909397323738953e-01 2.9838149105642766e+00 8.3160433547247625e-01 2.9838149105642766e+00 -1.5103429634672996e-01 3.9277221896022918e-01 8.3160433547247659e-01 3.9277221896022918e-01 3.3246826382798917e+00  -2.4675767667060655e+00 8.3462966231101454e-01 -4.7810235611002416e-01 8.3462966231101454e-01 2.9566440718427462e+00 9.2845889836961149e-01 -4.7810235611002405e-01 9.2845889836961149e-01 2.0831474936822416e+00  -1.8340146960517592e+00 2.2414219953206751e+00 -6.4286642383903733e-02 2.2414219953206747e+00 2.6969507397188788e+00 1.1525504990470175e+00 -6.4286642383903775e-02 1.1525504990470175e+00 2.3414777910963736e+00  -2.2345687215886154e+00 -5.7250884588269790e-01 -8.7606966937474984e-01 -5.7250884588269790e-01 2.1244220985351188e+00 5.0793099629084359e-01 -8.7606966937474984e-01 5.0793099629084359e-01 1.8863147615729992e+00  -2.7452138819966345e+00 2.5708275059594216e-01 -8.1876478863320101e-01 2.5708275059594199e-01 3.4271747550121057e+00 9.9726138284470001e-01 -8.1876478863320101e-01 9.9726138284470012e-01 2.8951358982361888e+00  -1.6680715560498294e+00 -1.2813487020254291e+00 -1.2309493004223704e+00 -1.2813487020254291e+00 1.7031165002590545e+00 -1.3449380946239950e-01 -1.2309493004223704e+00 -1.3449380946239950e-01 1.7359141372119675e+00  -2.1150781242685661e+00 1.9205848930411074e+00 8.9119280625189190e-01 1.9205848930411074e+00 2.4589688188122305e+00 7.1355444257946032e-01 8.9119280625189190e-01 7.1355444257946032e-01 3.1916865225653592e+00  -2.3333998542915220e+00 1.2691743308337637e+00 1.3496331173433922e+00 1.2691743308337637e+00 2.4222127449885140e+00 7.8962147270179417e-01 1.3496331173433922e+00 7.8962147270179439e-01 3.3947447869671321e+00  -2.4084409952963086e+00 3.8294350783914261e-01 1.4925799108525550e+00 3.8294350783914261e-01 2.7059530049194227e+00 1.1649254815681058e+00 1.4925799108525550e+00 1.1649254815681058e+00 3.2651850211788624e+00  -1.8129979258181714e+00 -8.2183680661161806e-01 1.8078325495713587e+00 -8.2183680661161806e-01 2.3168841535740943e+00 1.4291203164744157e+00 1.8078325495713592e+00 1.4291203164744157e+00 2.5063940344532880e+00  -1.4203335625214768e+00 -1.3308148795838537e+00 1.6389481514486883e+00 -1.3308148795838537e+00 1.9121002787458037e+00 1.6473136680882301e+00 1.6389481514486883e+00 1.6473136680882301e+00 2.5587827096714646e+00  -6.8353982680717817e-01 -1.7814836275831825e+00 1.6285086977747369e+00 -1.7814836275831825e+00 1.4272188840812108e+00 2.0308231294232733e+00 1.6285086977747369e+00 2.0308231294232733e+00 2.5309446414747843e+00  -6.7660497689233423e-01 -1.9463180266553326e+00 1.0556157155923718e+00 -1.9463180266553326e+00 1.1426998231107697e+00 1.9712034961643234e+00 1.0556157155923718e+00 1.9712034961643234e+00 2.4056145477629820e+00  -1.2199754172759343e+00 -1.3082289907568545e+00 8.5038645019022963e-01 -1.3082289907568545e+00 1.2283842709415262e+00 1.6648105351934355e+00 8.5038645019022963e-01 1.6648105351934355e+00 2.0160550928989469e+00  -1.0516185452128981e+00 2.8527080423099327e+00 3.0670149429255683e-01 2.8527080423099327e+00 1.9656391986236534e+00 9.5406060218596966e-01 3.0670149429255678e-01 9.5406060218596966e-01 2.3665936862939714e+00  -7.3384664918128575e-02 3.2119124206017231e+00 4.0139571448921274e-01 3.2119124206017231e+00 8.9705134054868751e-01 8.6727050792191396e-01 4.0139571448921274e-01 8.6727050792191396e-01 2.7200113766010627e+00  -1.5982503841556999e+00 2.7352516265153524e+00 -3.4764547462646900e-02 2.7352516265153524e+00 2.7064849738990682e+00 1.1726672631688355e+00 -3.4764547462646928e-02 1.1726672631688355e+00 3.1199255118893801e+00  2.0610344519627826e+00 2.8886481691025323e+00 7.1868896230579193e-01 2.8886481691025323e+00 -1.2183411348571795e+00 6.6090986901256032e-01 7.1868896230579193e-01 6.6090986901256032e-01 2.8407188699967048e+00  9.5499683774930788e-01 3.3464925616105674e+00 4.1004146433688782e-01 3.3464925616105674e+00 -4.2158372947176725e-02 7.3163480449254303e-01 4.1004146433688782e-01 7.3163480449254303e-01 3.0208053942434705e+00  4.2681139508827659e-01 3.4440779130402084e+00 3.2114060464544891e-01 3.4440779130402084e+00 5.8575880717654671e-01 1.0365590824916531e+00 3.2114060464544886e-01 1.0365590824916531e+00 3.1351567864069292e+00  2.9407739563196014e+00 1.8433811415166761e+00 7.6837216644781048e-01 1.8433811415166761e+00 -2.2792401151413166e+00 8.7458392156765363e-01 7.6837216644781048e-01 8.7458392156765363e-01 3.0508122880078763e+00  2.4643093094626933e+00 1.2723971502737075e+00 5.7557311093269581e-01 1.2723971502737070e+00 -2.4098048428538865e+00 7.3530395031814877e-01 5.7557311093269581e-01 7.3530395031814877e-01 2.8518164607450198e+00  1.5126108680008967e+00 1.7824159418552863e+00 8.8298936064082023e-01 1.7824159418552863e+00 -1.8672685074786204e+00 3.5324375410641551e-01 8.8298936064082023e-01 3.5324375410641551e-01 3.1915210862615244e+00  1.4890896807264025e+00 1.1492872874861222e+00 9.5550604990577448e-01 1.1492872874861222e+00 -2.1858244996945979e+00 1.6741987944059908e-01 9.5550604990577448e-01 1.6741987944059913e-01 3.0314858734794421e+00  -2.6217387300251853e+00 -1.9842365859700520e-01 -1.0190504640655051e+00 -1.9842365859700514e-01 3.1855008797054039e+00 9.6863862425965030e-01 -1.0190504640655051e+00 9.6863862425965030e-01 2.6890638149617385e+00  -2.6214134664292459e+00 1.1032527025752759e+00 -6.0631746735032199e-01 1.1032527025752759e+00 3.2744467526567851e+00 1.0327063197452495e+00 -6.0631746735032199e-01 1.0327063197452495e+00 3.2073490578426296e+00  -2.4868701232019594e+00 1.3740583981039245e+00 -4.1536918180456024e-02 1.3740583981039245e+00 2.8227101936134198e+00 9.9022724743582724e-01 -4.1536918180456066e-02 9.9022724743582746e-01 2.9640581674863049e+00  -2.4095207563396936e+00 1.7144541218585780e+00 -5.1671955278116632e-01 1.7144541218585780e+00 3.4808903037155470e+00 1.2056500754640584e+00 -5.1671955278116632e-01 1.2056500754640587e+00 3.3435139845877448e+00  -1.6390626608660621e+00 2.6701459256022608e+00 6.4814478115687246e-02 2.6701459256022599e+00 2.5611615548001239e+00 1.1857181061889899e+00 6.4814478115687288e-02 1.1857181061889899e+00 3.1737537603657726e+00  -1.7282038860118207e+00 2.6578230139332697e+00 -2.0133181402246758e-01 2.6578230139332697e+00 2.8241022236980711e+00 1.1664538011214047e+00 -2.0133181402246761e-01 1.1664538011214045e+00 3.2164230705855767e+00  -6.2956005653326863e-01 3.3846385386957629e+00 1.1874808848829480e-01 3.3846385386957638e+00 1.7969256755817138e+00 1.1386899954471015e+00 1.1874808848829481e-01 1.1386899954471015e+00 3.2120634046146774e+00  3.4911649881227076e+00 1.1034483946298472e+00 1.0360124257250560e+00 1.1034483946298470e+00 -2.6496030883104149e+00 5.7064858612296809e-01 1.0360124257250560e+00 5.7064858612296809e-01 2.8213138193786644e+00  3.7107470148186903e+00 1.3423495657358115e+00 8.7005911990543650e-01 1.3423495657358115e+00 -2.6234421758688669e+00 7.1851960064386322e-01 8.7005911990543650e-01 7.1851960064386322e-01 2.9621688571430647e+00  3.1965919462829779e+00 1.4934770170437068e+00 6.8795801900852871e-01 1.4934770170437068e+00 -2.4199344122851087e+00 3.6076467144606800e-01 6.8795801900852871e-01 3.6076467144606800e-01 2.5103464736415293e+00  2.9800141802946367e+00 2.0333465911575708e+00 8.5019343498679611e-01 2.0333465911575708e+00 -2.1137574219568358e+00 5.2601394848837479e-01 8.5019343498679611e-01 5.2601394848837468e-01 2.7280880058597043e+00  -2.0571343202365044e+00 -1.3106818675360210e+00 -1.1649339277116468e+00 -1.3106818675360212e+00 2.0862774487237674e+00 5.5093216757230401e-01 -1.1649339277116468e+00 5.5093216757230401e-01 2.4628763911992753e+00  -2.4788724126934789e+00 -5.9070243048196658e-01 -6.8895733710946849e-01 -5.9070243048196658e-01 2.3690977511548308e+00 7.2628163888415398e-01 -6.8895733710946849e-01 7.2628163888415398e-01 2.6805126707621323e+00  -1.5918161331494618e+00 -1.5781921633793758e+00 -1.4628963801287835e+00 -1.5781921633793767e+00 1.8683533081688124e+00 6.4877345831216085e-03 -1.4628963801287835e+00 6.4877345831215226e-03 2.0451507926292378e+00  -1.1674359471660032e+00 -1.8483832629369596e+00 -1.3558588680613086e+00 -1.8483832629369596e+00 1.3370977271651325e+00 2.6173261317346075e-01 -1.3558588680613088e+00 2.6173261317346075e-01 1.9521521700976163e+00  3.4089375922734966e-01 -2.1570288129200801e+00 -1.9041545523921586e+00 -2.1570288129200792e+00 8.5812404178356017e-01 -1.0332994920582890e+00 -1.9041545523921586e+00 -1.0332994920582887e+00 1.3688524988799160e+00  -2.2993310969712120e+00 -7.4211587279403846e-01 -9.6667393958266346e-02 -7.4211587279403879e-01 2.2843032216286101e+00 8.4203277124386056e-01 -9.6667393958266373e-02 8.4203277124386056e-01 2.2399438915834637e+00  -2.5528155679660149e+00 -3.9616308263803435e-01 -1.4662239698145005e-01 -3.9616308263803435e-01 2.6658501970316899e+00 1.1011629677599331e+00 -1.4662239698144997e-01 1.1011629677599328e+00 2.6137135962192382e+00  -2.5051824553704938e+00 2.8037907072856721e-01 8.3903242529470201e-01 2.8037907072856721e-01 2.7032852092375661e+00 1.0011697488683111e+00 8.3903242529470201e-01 1.0011697488683111e+00 2.4750734013177591e+00  -2.6180778629780779e+00 5.5997927506792311e-01 2.1114824261651685e-01 5.5997927506792311e-01 2.6170047202195068e+00 9.1197636908160018e-01 2.1114824261651685e-01 9.1197636908160062e-01 2.9424078190647553e+00  -2.4226487484106074e+00 1.5186191627732022e+00 3.6622498051883196e-01 1.5186191627732022e+00 2.7268891469672205e+00 9.4716750664398741e-01 3.6622498051883196e-01 9.4716750664398741e-01 3.0432616927417393e+00  -1.8829166010677711e+00 -1.1840010984141125e+00 8.3742717902067387e-02 -1.1840010984141125e+00 1.4286958149499041e+00 6.3812067896861624e-01 8.3742717902067387e-02 6.3812067896861624e-01 2.1962636575191472e+00  -2.0085421090692686e+00 -9.6234179105819073e-01 7.4628425629257700e-01 -9.6234179105819073e-01 2.2659269709939536e+00 1.3002269236156587e+00 7.4628425629257711e-01 1.3002269236156587e+00 1.9037251561047333e+00  -7.7328799649663868e-02 -2.1306212189259712e+00 -1.6047170673101869e+00 -2.1306212189259717e+00 4.8508215399365201e-01 -3.7020860130298283e-01 -1.6047170673101869e+00 -3.7020860130298283e-01 1.6461589813456945e+00  -6.9784505557951892e-01 -2.0346786951910700e+00 -1.1143254631827704e+00 -2.0346786951910700e+00 6.3311241985669919e-01 2.7261993153075842e-01 -1.1143254631827704e+00 2.7261993153075842e-01 2.0309050019569388e+00  -1.1925448379930987e+00 -1.8789202571391799e+00 -2.7178162864464472e-01 -1.8789202571391799e+00 9.4294614675992838e-01 5.9461906867171044e-01 -2.7178162864464472e-01 5.9461906867171044e-01 2.1431123767439897e+00  -9.5914171188261965e-01 -1.5561956656637250e+00 3.7372862927893691e-01 -1.5561956656637252e+00 7.0799206166345385e-01 1.0525511570177286e+00 3.7372862927893691e-01 1.0525511570177286e+00 1.6733153309526057e+00  -2.1813136930196002e+00 -1.1023368692221053e-01 1.7345738242785094e+00 -1.1023368692221051e-01 2.3948163491859340e+00 1.1807656788944392e+00 1.7345738242785096e+00 1.1807656788944392e+00 2.7363938531052128e+00  -1.3482217120824397e-01 3.4151942779313851e+00 4.0450259041890280e-01 3.4151942779313851e+00 1.1521730047384284e+00 1.0371935601157301e+00 4.0450259041890280e-01 1.0371935601157301e+00 3.1107304319399227e+00  -1.2699364146305532e+00 2.9010292313416350e+00 3.1746493486739824e-01 2.9010292313416350e+00 2.0098079908887745e+00 9.3732111661429229e-01 3.1746493486739824e-01 9.3732111661429229e-01 3.1727709001497120e+00  -1.8545328095929414e+00 2.4043967452454176e+00 3.8463997019707996e-01 2.4043967452454176e+00 2.5103165961335145e+00 8.7882052292515678e-01 3.8463997019707974e-01 8.7882052292515678e-01 3.1744773229327632e+00  1.0063024747152802e+00 3.4858677755362248e+00 4.8276006198538102e-01 3.4858677755362248e+00 6.4157448179479992e-02 9.3488916957324875e-01 4.8276006198538102e-01 9.3488916957324875e-01 3.2740245213404773e+00  3.2218762126075273e-01 3.4816027050201055e+00 2.9428256369250577e-01 3.4816027050201055e+00 7.1945292652916659e-01 1.1443919928928916e+00 2.9428256369250572e-01 1.1443919928928916e+00 3.2789753459401023e+00  1.4284880813681931e+00 3.0446436064183975e+00 6.2938811523202032e-01 3.0446436064183975e+00 -7.8111432746504905e-01 7.7761617591290522e-01 6.2938811523202032e-01 7.7761617591290522e-01 3.0740919397979751e+00  1.8388255574174310e+00 3.0298491806582950e+00 6.5467460939327748e-01 3.0298491806582950e+00 -1.0824842110543300e+00 8.4945689680790071e-01 6.5467460939327748e-01 8.4945689680790071e-01 3.5151705477700892e+00  1.3258162278115546e+00 2.4747039030074856e+00 7.6303942521969603e-01 2.4747039030074856e+00 -1.2944219106142403e+00 4.7172910802382456e-01 7.6303942521969603e-01 4.7172910802382456e-01 2.9509185445539217e+00  1.5288407612012169e+00 -2.2590919929410962e+00 -1.9052463742155288e+00 -2.2590919929410958e+00 2.7430123019715735e-01 -1.4639501172031291e+00 -1.9052463742155288e+00 -1.4639501172031293e+00 1.2722676894495282e+00  1.1002837650257871e+00 -2.0845674183562442e+00 -1.4834500036629521e+00 -2.0845674183562450e+00 5.1508387504673930e-02 -1.2365468910498445e+00 -1.4834500036629521e+00 -1.2365468910498445e+00 1.0039992426910100e+00  2.5822601341485476e+00 2.5537052623279961e+00 6.6041310017523536e-01 2.5537052623279952e+00 -1.7603694628109776e+00 9.1542878222510959e-01 6.6041310017523536e-01 9.1542878222510959e-01 3.3399203451620600e+00  2.0031281694522085e+00 3.0162978279992583e+00 6.4605274211658337e-01 3.0162978279992583e+00 -1.1496237686245960e+00 7.6053012747174820e-01 6.4605274211658337e-01 7.6053012747174820e-01 3.2865089246767378e+00  2.7860958907314309e-01 -1.6746187321002854e+00 5.5251220324051198e-01 -1.6746187321002854e+00 -2.8041157326373001e-01 1.4504313199116783e+00 5.5251220324051198e-01 1.4504313199116783e+00 1.4543402095646896e+00  -1.1224307175037089e+00 -1.4082678262852764e+00 7.7412478311365818e-01 -1.4082678262852764e+00 8.5469881962026872e-01 1.1954582976560717e+00 7.7412478311365818e-01 1.1954582976560717e+00 1.8506853037118782e+00  1.7062455743688472e+00 1.5351241432206637e+00 -9.9225369138356179e-01 1.5351241432206637e+00 5.0172295699720548e-01 2.0772595362634525e+00 -9.9225369138356179e-01 2.0772595362634525e+00 2.6504890408327557e-04  2.7630752516983477e+00 1.0172491498590948e+00 4.4392618004993206e-01 1.0172491498590950e+00 -8.1875696593510502e-02 -1.8612135189209100e+00 4.4392618004993206e-01 -1.8612135189209100e+00 -5.6894817726617242e-01  -8.2917435005584728e-01 1.1490483812531880e+00 1.6424565274254253e+00 1.1490483812531880e+00 1.7144216055183388e+00 -9.3436958993888197e-01 1.6424565274254253e+00 -9.3436958993888197e-01 6.8987588531312460e-01  -6.9965936920688065e-01 1.2015822175489884e-02 -2.1099169966141553e+00 1.2015822175489828e-02 2.6054526580731094e+00 5.8866706198965701e-01 -2.1099169966141553e+00 5.8866706198965701e-01 1.9743317759033138e-01  1.1097515516095993e+00 -8.6307141107539598e-01 1.0170896442654767e+00 -8.6307141107539598e-01 6.6184902602568665e-02 1.7900137075961426e+00 1.0170896442654767e+00 1.7900137075961426e+00 2.4954523339274418e-01  1.8308525176286932e+00 -4.8080425450954190e-01 -3.8796862140454663e-01 -4.8080425450954190e-01 -3.5200932838311078e-01 -1.3834607857663002e+00 -3.8796862140454619e-01 -1.3834607857663002e+00 -4.0177593765667335e-01  1.0363966111045320e+00 2.9268304563696451e-01 2.5807949236963645e-01 2.9268304563696451e-01 1.3772089656014234e-02 -8.2393491471972846e-01 2.5807949236963645e-01 -8.2393491471972846e-01 -6.0698304794483238e-01  -1.0519815472920186e+00 -3.8798403722495473e-01 2.3129346307033454e+00 -3.8798403722495473e-01 2.6884995054806407e+00 -2.9085199820795926e-01 2.3129346307033454e+00 -2.9085199820795926e-01 9.9075260077256178e-01  3.8633695835644594e-01 -8.8875829248850724e-01 6.4789947193444097e-01 -8.8875829248850724e-01 1.0499567750181031e+00 1.4529827466823825e-01 6.4789947193444097e-01 1.4529827466823825e-01 -1.3076059030093452e+00  8.7171997881926289e-01 8.1297683005381471e-01 1.6309534100904783e+00 8.1297683005381471e-01 1.0487668040392213e+00 -7.6113954064924849e-01 1.6309534100904781e+00 -7.6113954064924871e-01 -6.7243634878616576e-01  9.8594074382955010e-01 -3.4137453583108879e-02 -9.2697790206761027e-02 -3.4137453583108844e-02 -6.8979028057971639e-02 -2.1509430693571344e-01 -9.2697790206761069e-02 -2.1509430693571344e-01 -6.8388866777656254e-01  -4.3507785279131843e-02 1.1126041146943035e+00 -1.8301993477308562e+00 1.1126041146943038e+00 2.2490042742413658e+00 1.5229421851503537e+00 -1.8301993477308562e+00 1.5229421851503537e+00 8.7529450013933668e-02  -5.7538895059176712e-02 2.0638620547166264e-01 -1.3498733718662843e+00 2.0638620547166264e-01 1.7484213012453784e+00 1.2451418758542123e+00 -1.3498733718662845e+00 1.2451418758542123e+00 -6.7814847438296622e-01  7.0126392197811582e-01 -2.1002519599684749e-01 -1.2718323820736952e+00 -2.1002519599684749e-01 7.2196552252608170e-01 -3.7029405874439542e-01 -1.2718323820736952e+00 -3.7029405874439553e-01 -7.1456008115945557e-01  1.1605901747726959e+00 -6.0077036606940704e-01 -1.5964036668670611e+00 -6.0077036606940704e-01 -1.3039233870521383e-01 -2.4529752894447757e-01 -1.5964036668670611e+00 -2.4529752894447771e-01 -2.3594902831561249e-01  2.0880796612705850e+00 -1.5203887121005083e-01 -5.6422440051458500e-01 -1.5203887121005083e-01 4.0755592493305093e-01 2.0142113414529392e+00 -5.6422440051458500e-01 2.0142113414529392e+00 -3.2117368390658263e-01  2.4988848839352045e+00 2.8526553715462327e-01 3.1755773897360555e-02 2.8526553715462333e-01 -5.5163449855063518e-01 2.2162657353898649e+00 3.1755773897360534e-02 2.2162657353898649e+00 1.0711780899362047e-01  1.2600096928139509e-01 -1.4316839929418363e+00 1.9918744888953812e+00 -1.4316839929418363e+00 8.9487729406751548e-01 4.6741589365982178e-01 1.9918744888953812e+00 4.6741589365982195e-01 6.6130712351474841e-01  1.4335821018008488e+00 2.6820634893737205e+00 8.6012929898478363e-01 2.6820634893737205e+00 7.4573408537152874e-01 -1.6565850432247402e+00 8.6012929898478385e-01 -1.6565850432247402e+00 6.3917522941354288e-01  1.7046265675959680e+00 -3.3360185550974092e-01 1.2030756443175932e+00 -3.3360185550974092e-01 1.6802843864058972e+00 1.9452166033166274e+00 1.2030756443175925e+00 1.9452166033166274e+00 -1.0823677882648632e+00  2.0967247248652763e+00 1.0516577397304139e-01 7.5024422165797866e-01 1.0516577397304143e-01 -9.7055627224102736e-01 1.9479759374136703e+00 7.5024422165797866e-01 1.9479759374136703e+00 6.2330468174558795e-01  1.9983956500034927e+00 7.3534544628154697e-01 2.5330594014715779e-01 7.3534544628154652e-01 -7.4781132754651847e-01 2.1298173317549809e+00 2.5330594014715779e-01 2.1298173317549809e+00 6.2161684420813368e-01  1.4658045884744864e+00 -1.1003429375519966e+00 1.6881063959587970e+00 -1.1003429375519971e+00 -5.1229523465374838e-01 1.1295929788429320e+00 1.6881063959587965e+00 1.1295929788429317e+00 6.0945945510817179e-01  2.2142259921350056e+00 -5.2080212076172250e-01 1.2171048043431205e+00 -5.2080212076172250e-01 -8.9167041227019062e-01 1.7248553009647802e+00 1.2171048043431205e+00 1.7248553009647802e+00 5.3040426193693535e-01  2.2978466580705992e+00 -2.3298634423455300e-01 5.7555540938668526e-01 -2.3298634423455306e-01 -4.6829206634752324e-01 2.1412240989162217e+00 5.7555540938668526e-01 2.1412240989162217e+00 1.0995940275541551e-01  1.8992772984928277e+00 -1.0447830299305636e+00 -1.1956117853079424e+00 -1.0447830299305632e+00 -6.2934287079282825e-01 -1.2323473740596689e+00 -1.1956117853079427e+00 -1.2323473740596689e+00 1.1319746152338370e-01  2.8181884149777243e+00 -6.5100768483248098e-02 -8.7472782423148299e-01 -6.5100768483247987e-02 -1.0503104020734706e+00 -1.7692773711129643e+00 -8.7472782423148265e-01 -1.7692773711129643e+00 1.6414479300688267e-01  3.5364772198017702e+00 8.4827947365310463e-01 -3.5216329323660994e-01 8.4827947365310452e-01 -1.4080604450329317e+00 -1.6764820756160737e+00 -3.5216329323661011e-01 -1.6764820756160737e+00 2.9163376143646863e-01  2.5139709331420117e+00 2.0072345900117465e+00 4.1656579597769872e-01 2.0072345900117461e+00 -3.8212684466280372e-01 -1.9268224201534465e+00 4.1656579597769872e-01 -1.9268224201534465e+00 3.6595395687943583e-01  2.6018149924383533e+00 2.1560020040560796e-01 -3.4634202262475655e-02 2.1560020040560796e-01 -6.0055930200476182e-01 -1.7250165275114371e+00 -3.4634202262475662e-02 -1.7250165275114371e+00 -2.4057885970674134e-01  1.8492545578039381e+00 1.5962254743693138e+00 -2.6152051483324490e-01 1.5962254743693138e+00 -1.0025848087295845e-01 2.2701594464355392e+00 -2.6152051483324484e-01 2.2701594464355392e+00 6.3436681951275331e-01  7.4722652441989024e-01 1.6655458393242071e+00 -7.0748218215450809e-01 1.6655458393242071e+00 8.9782107203174666e-01 2.2101660038267035e+00 -7.0748218215450775e-01 2.2101660038267035e+00 4.2097318383867999e-01  1.7301838000363305e+00 9.2202939892524183e-01 -5.5977093607966821e-01 9.2202939892524183e-01 -1.4252416727212719e-01 2.1498142822691038e+00 -5.5977093607966821e-01 2.1498142822691038e+00 8.4124989746313411e-02  -3.1052918718068873e-01 1.4990494194602288e+00 -1.2969042886194802e+00 1.4990494194602288e+00 2.0974056569132524e+00 1.9217664477009848e+00 -1.2969042886194804e+00 1.9217664477009848e+00 5.6529690581640024e-01  -8.9707200332122472e-01 6.7607292657962115e-01 -1.7504934109420305e+00 6.7607292657962126e-01 2.6530076140697569e+00 1.7769795866220128e+00 -1.7504934109420309e+00 1.7769795866220128e+00 7.5494309964493123e-01  7.0919255012292715e-01 1.3881357480747001e+00 -1.4254631718435860e+00 1.3881357480746996e+00 1.0268769347393494e+00 1.6585789579855559e+00 -1.4254631718435860e+00 1.6585789579855559e+00 2.7603063634186395e-02  -8.6904882851222276e-01 -3.2232358995175925e-01 -2.1494745412169816e+00 -3.2232358995175930e-01 2.4018251781079347e+00 1.2603554380398103e+00 -2.1494745412169824e+00 1.2603554380398103e+00 6.1813244513566024e-01  -7.3041765961872562e-01 -9.2585257673882371e-01 -1.8695930322713159e+00 -9.2585257673882349e-01 1.5467341100851610e+00 3.4052757168428904e-01 -1.8695930322713166e+00 3.4052757168428893e-01 4.8922434660821712e-01  -4.0755385508693143e-01 7.6238329795657434e-01 -1.8610585400835726e+00 7.6238329795657434e-01 2.5059119179741574e+00 1.0073490829243443e+00 -1.8610585400835720e+00 1.0073490829243446e+00 -1.1793459908097051e-01  4.7748891260323674e-02 -1.5554487906082601e+00 -1.6653974365900315e+00 -1.5554487906082604e+00 1.3141318382347815e+00 -3.7140928195645934e-01 -1.6653974365900313e+00 -3.7140928195645939e-01 9.7530135777432858e-02  7.8939505661504894e-01 -1.6491601978351518e+00 -1.1144513862854120e+00 -1.6491601978351520e+00 5.1609065809805821e-01 -7.5102688256648720e-01 -1.1144513862854120e+00 -7.5102688256648753e-01 -3.1247404195209166e-01  -6.6793063373978190e-01 -3.9175748021632290e-01 -2.2414494815294654e+00 -3.9175748021632328e-01 1.2107861056572102e+00 4.5841151772115563e-01 -2.2414494815294663e+00 4.5841151772115574e-01 7.8224496537924837e-01  2.2000917984691779e+00 -6.2116129961256705e-01 -1.1500001544906906e+00 -6.2116129961256727e-01 2.0724238764673705e-01 -1.4539527898024169e+00 -1.1500001544906906e+00 -1.4539527898024169e+00 -8.6391219970732613e-01  2.3658391508247458e+00 2.9397620766773853e+00 4.4091809798366127e-01 2.9397620766773849e+00 2.7584469733985522e-02 -1.8614374350109644e+00 4.4091809798366127e-01 -1.8614374350109644e+00 1.0329690431894514e+00  7.2703137705428889e-01 2.4777250254707011e+00 9.6349040750818382e-01 2.4777250254707011e+00 4.8542538505336191e-01 -1.7700468859006528e+00 9.6349040750818382e-01 -1.7700468859006524e+00 1.4405104875322885e+00  1.6807883611977901e+00 1.8387408586378886e+00 8.8975362625454524e-01 1.8387408586378884e+00 4.9325204593646937e-01 -1.8881159966080538e+00 8.8975362625454524e-01 -1.8881159966080538e+00 -1.2522196975233806e-02  -5.7966747545053576e-01 2.2913803655184650e+00 1.3330798175775738e+00 2.2913803655184650e+00 2.6157104535360358e+00 -1.6950461511574928e+00 1.3330798175775738e+00 -1.6950461511574926e+00 1.2154232169223522e+00  -1.1890309168689412e+00 7.0719192735756908e-01 1.9882334977236245e+00 7.0719192735756908e-01 2.3560851432443601e+00 -1.4153123301508657e+00 1.9882334977236245e+00 -1.4153123301508657e+00 1.2132493118414256e+00  5.7203939201198414e-02 1.8788880136283808e+00 1.4175041784897842e+00 1.8788880136283808e+00 1.2814858839082306e+00 -1.7567759444902493e+00 1.4175041784897839e+00 -1.7567759444902493e+00 9.5783678392487004e-01  -1.3889608265410607e+00 -6.6247535773740155e-03 2.0257949703818676e+00 -6.6247535773740155e-03 2.4467418362345299e+00 -1.0338911389532597e+00 2.0257949703818676e+00 -1.0338911389532597e+00 1.1653870195030418e+00  -7.0075695987476605e-01 -1.3126303330262523e+00 2.1196516907085519e+00 -1.3126303330262523e+00 1.8653211090684880e+00 -4.1391016820053295e-01 2.1196516907085519e+00 -4.1391016820053295e-01 8.4478108856776468e-01  -4.8701344136530328e-01 1.2566007324733891e-01 2.1156392550818519e+00 1.2566007324733894e-01 2.1146895052707460e+00 7.2165116924219785e-02 2.1156392550818519e+00 7.2165116924219799e-02 -2.9911970939118548e-01  -4.3294649032491783e-01 -1.5787232707160139e+00 1.8063628235986202e+00 -1.5787232707160141e+00 1.2612693908136112e+00 -3.6074169525907064e-02 1.8063628235986202e+00 -3.6074169525907029e-02 8.0788789794734583e-01  2.1588855261739273e-01 -1.6517591804507645e+00 1.7979950181710758e+00 -1.6517591804507643e+00 4.5036497108082302e-01 1.5799474792783230e-01 1.7979950181710758e+00 1.5799474792783227e-01 8.5894312538999684e-01  -2.9018469250259477e-01 -1.2285333057330838e+00 2.2639031529863964e+00 -1.2285333057330838e+00 1.2340561901009020e+00 1.8638305929258961e-01 2.2639031529863969e+00 1.8638305929258961e-01 9.6241169905435031e-01  1.0817931577331590e+00 -1.1952900258974821e+00 1.6487302468438210e+00 -1.1952900258974821e+00 1.7822193371239409e-01 1.0992362881357434e+00 1.6487302468438210e+00 1.0992362881357434e+00 1.8390057030673149e-01  5.7647931098816707e-01 3.0882761310000939e-01 -4.8169787371953271e-01 3.0882761310000933e-01 8.3128095213196429e-01 1.7931644543998331e+00 -4.8169787371953271e-01 1.7931644543998331e+00 -6.2069155440339807e-01  3.0539925369728282e-01 8.2285693257187298e-01 -1.7996949493202679e+00 8.2285693257187298e-01 1.8957478957147884e+00 8.3145846722082961e-01 -1.7996949493202681e+00 8.3145846722082939e-01 -6.6516449269522304e-01  2.1816010860726851e+00 7.8347972300810398e-01 -2.2911307174651127e-01 7.8347972300810398e-01 3.3460772122956789e-01 2.0831172820134451e+00 -2.2911307174651127e-01 2.0831172820134451e+00 -6.4444246444794340e-01  1.8461291207304911e+00 9.7580042887936969e-01 -1.1319838970309775e+00 9.7580042887936969e-01 7.0706328033411336e-01 9.7277646188997313e-01 -1.1319838970309775e+00 9.7277646188997313e-01 -1.1739065383659388e+00  2.1318374681578272e+00 -1.0285030536292944e-01 4.0402270115142908e-01 -1.0285030536292941e-01 2.0013526171873037e-02 2.1193572146101509e+00 4.0402270115142908e-01 2.1193572146101514e+00 -4.3833394379721330e-01  2.0674069905357779e+00 3.1690469329498150e-01 1.6787675953622230e-01 3.1690469329498150e-01 -9.9061396464257295e-02 -1.5039784862823440e+00 1.6787675953622228e-01 -1.5039784862823440e+00 -6.8466722162663685e-01  1.6035182445153908e+00 5.9041576043871491e-01 7.3551784640098528e-01 5.9041576043871491e-01 -2.1115701961433436e-01 -1.5048972737756525e+00 7.3551784640098516e-01 -1.5048972737756525e+00 -3.0171983283859194e-01  5.8685040706731539e-01 3.7318618171966822e-01 6.5591790897587243e-01 3.7318618171966816e-01 4.2380101020612032e-01 -1.3032958084774948e+00 6.5591790897587254e-01 -1.3032958084774948e+00 -3.5369424715233727e-01  1.3501220270209404e+00 1.1666067667819731e+00 9.6565148437945936e-01 1.1666067667819733e+00 5.5113677741408063e-01 -1.3577632624344222e+00 9.6565148437945936e-01 -1.3577632624344225e+00 -6.6087293292556804e-01  1.2739111991063334e+00 1.9239023563429489e+00 1.5328587980308552e+00 1.9239023563429489e+00 1.2035729634864867e+00 -1.5477489593838922e+00 1.5328587980308552e+00 -1.5477489593838920e+00 2.5648148881949752e-02  3.8947389029629953e-01 5.1149595209561571e-01 2.0445056226253913e+00 5.1149595209561571e-01 1.3885249665888344e+00 -3.1222324454261646e-01 2.0445056226253908e+00 -3.1222324454261641e-01 -4.5989400156956328e-01  1.3850628950893878e-01 -5.6398445207964532e-01 2.1622736214832359e+00 -5.6398445207964532e-01 1.3288264674703605e+00 6.6055879734011869e-01 2.1622736214832359e+00 6.6055879734011858e-01 9.3739454098509714e-02  2.5282914879136248e-01 1.3804950589693097e+00 1.5658267065414804e+00 1.3804950589693097e+00 3.8262617145054717e-01 -7.7018428123968319e-01 1.5658267065414808e+00 -7.7018428123968308e-01 3.7727150398591602e-01  3.5472693181674075e-01 2.8745816677719575e-02 1.2237507750986492e+00 2.8745816677719468e-02 1.2821088062132273e+00 -5.6763209396989167e-01 1.2237507750986492e+00 -5.6763209396989167e-01 -8.7046149613770307e-01  -4.7992944391923237e-01 -2.9104576882546224e-01 -1.8489652832991983e+00 -2.9104576882546224e-01 2.5814858016980917e+00 3.7713118468655604e-02 -1.8489652832991983e+00 3.7713118468655542e-02 -5.3889272079054240e-01  2.1757803407833873e-01 -8.1348738697953571e-01 -6.6824758085093061e-01 -8.1348738697953571e-01 6.1215781210528120e-01 7.9323194599606739e-02 -6.6824758085093061e-01 7.9323194599606739e-02 -6.5300823918539930e-01  -6.2010832722355980e-01 -1.2584780719643307e-01 -1.3659006775080784e+00 -1.2584780719643321e-01 2.1418570707776636e+00 -7.4491016038702429e-01 -1.3659006775080782e+00 -7.4491016038702440e-01 -3.1212212967744163e-01  4.2105109210794821e-02 -1.2211589887455271e-01 -1.0050691324544792e+00 -1.2211589887455267e-01 3.9408732595645030e-01 -7.3841768247568274e-01 -1.0050691324544800e+00 -7.3841768247568262e-01 -4.6624951682114786e-02  2.0571288191864725e+00 -6.7860423394828950e-01 1.2203254803709400e+00 -6.7860423394828950e-01 4.0940222606086135e-01 1.8834098008494706e+00 1.2203254803709400e+00 1.8834098008494706e+00 -5.0443252925656989e-01  8.4599329672210699e-01 -5.9873438844171734e-01 1.1509458720709240e+00 -5.9873438844171734e-01 9.5487587204533020e-01 1.2705547283409260e+00 1.1509458720709242e+00 1.2705547283409260e+00 -6.3547717503526457e-01  1.7599738353182572e+00 -6.1924015387796121e-02 8.6581879050481247e-01 -6.1924015387796114e-02 1.2723814299076799e-01 1.3318629716258517e+00 8.6581879050481225e-01 1.3318629716258517e+00 -1.2341323164781199e+00  4.6573972888958204e-01 -1.0510038716618701e+00 1.3581971663516974e+00 -1.0510038716618701e+00 1.2719953045076597e+00 1.2588479789672711e+00 1.3581971663516972e+00 1.2588479789672711e+00 -4.1639960900147899e-01  1.6840634509198467e+00 4.6311223125263555e-02 3.8761014645627514e-03 4.6311223125263590e-02 -1.9301270413277863e-01 -1.3272132419175708e+00 3.8761014645629878e-03 -1.3272132419175708e+00 -5.8814269454970070e-01  8.3045958015899857e-01 9.1574328091530779e-02 1.1672489777340606e-02 9.1574328091530779e-02 3.2997989213217976e-01 -1.3366624481690131e-01 1.1672489777340637e-02 -1.3366624481690131e-01 -8.2269367701991081e-01  9.0995155559964225e-01 2.8003166994271594e-01 3.4072224419228275e-01 2.8003166994271594e-01 1.7674256067170674e-01 -1.1054812058732862e-01 3.4072224419228275e-01 -1.1054812058732884e-01 -6.8143754929666189e-01  7.2342987334495756e-01 2.4063501605559615e-01 1.1916978769279427e+00 2.4063501605559609e-01 6.5142720793472764e-01 -1.3968708029255927e+00 1.1916978769279427e+00 -1.3968708029255925e+00 -4.8050217194056394e-01  1.2049771706168988e+00 2.7901531684109687e-01 -1.9748958060927393e-01 2.7901531684109687e-01 -3.9832501194675396e-01 2.6982976817166088e-01 -1.9748958060927382e-01 2.6982976817166093e-01 -7.2954201992979484e-01  2.3259812691101839e-01 4.6163340811886194e-01 -3.8455580917130744e-01 4.6163340811886200e-01 7.2105169618002474e-01 1.5389616571777998e-01 -3.8455580917130755e-01 1.5389616571777995e-01 -5.8258533054805761e-01  4.2567590883696055e-01 -4.0400702858779147e-01 1.6058239123529459e+00 -4.0400702858779147e-01 1.6663402837361239e+00 -1.3260741092665746e-02 1.6058239123529463e+00 -1.3260741092665732e-02 -1.1609174834295373e+00  -2.2472036779484370e-01 -2.2598689490429621e-01 1.5603817795110035e+00 -2.2598689490429621e-01 1.3987891414383635e+00 1.4457565290550110e+00 1.5603817795110035e+00 1.4457565290550110e+00 1.1514893887720916e-01  2.8603576778877127e+00 3.2821381275673848e-02 -9.5749863177643701e-01 3.2821381275673800e-02 9.2300929103225871e-01 7.7873938420047306e-01 -9.5749863177643701e-01 7.7873938420047306e-01 -1.9298045250406537e+00  5.2707560765604777e-01 2.9171725303896201e-01 -7.8967643942768795e-01 2.9171725303896201e-01 -4.5785421424773126e-01 2.3468869617170069e+00 -7.8967643942768795e-01 2.3468869617170069e+00 7.6365258586516349e-01  9.1953465819135896e-02 6.7269918541170992e-01 -1.0058954439353607e+00 6.7269918541170970e-01 1.2535010613554713e+00 3.2362080639201668e-01 -1.0058954439353607e+00 3.2362080639201668e-01 -8.3781214618108468e-01  3.3712431019462485e+00 1.3073656830820719e+00 -5.2550237921765108e-01 1.3073656830820719e+00 -2.3997320802483761e+00 -1.4362100285014472e+00 -5.2550237921765108e-01 -1.4362100285014472e+00 2.9546414155489416e+00  -8.1696829461593046e-01 2.5542772602182100e+00 2.1701653195673813e+00 2.5542772602182100e+00 4.1606806798090705e+00 -2.0397239385092698e+00 2.1701653195673809e+00 -2.0397239385092698e+00 2.7448007511353181e+00  2.1483336548031824e+00 -2.3180146475562848e+00 1.4545092395721049e+00 -2.3180146475562848e+00 -1.4682863704172195e+00 6.0722869371834254e-01 1.4545092395721049e+00 6.0722869371834254e-01 2.8501367639677566e+00  -2.0680478457346654e+00 -8.7200630768881759e-01 -2.8356519036099220e-01 -8.7200630768881748e-01 1.1591128188656750e+00 -1.1807547804075931e+00 -2.8356519036099215e-01 -1.1807547804075931e+00 2.7631906479913844e+00  1.1806002798998538e-01 2.1501678606694119e+00 -1.1935837952041770e+00 2.1501678606694119e+00 -6.1115298135322282e-01 3.4402955065739327e-01 -1.1935837952041770e+00 3.4402955065739327e-01 2.8193505679031441e+00  1.7873050101677224e+00 4.4282002678031301e-01 -7.6755436877800620e-01 4.4282002678031301e-01 -1.9541228616172086e+00 1.5192931662679101e+00 -7.6755436877800620e-01 1.5192931662679103e+00 2.3023157155192941e+00  -2.6936002805883474e-01 -2.7728568763921815e+00 1.6027347124008755e+00 -2.7728568763921815e+00 1.1393353267158588e+00 -4.0317242265789505e-01 1.6027347124008755e+00 -4.0317242265789505e-01 2.0709527271873904e+00  -2.4370447913700439e+00 2.3643610699649056e-01 1.7301207541570249e+00 2.3643610699649056e-01 4.1068575027069958e+00 -1.3764786711281309e+00 1.7301207541570252e+00 -1.3764786711281309e+00 2.8371503842141661e+00  -2.2785565794576383e+00 1.0220174753201352e+00 1.7046050288287631e+00 1.0220174753201350e+00 4.2199028616366414e+00 -1.4878254717367920e+00 1.7046050288287631e+00 -1.4878254717367920e+00 2.8161130227783322e+00  -1.9270036202822967e+00 -1.7705218216493193e+00 1.7671593036600537e+00 -1.7705218216493206e+00 3.1230363207808520e+00 -5.1885745651454118e-01 1.7671593036600546e+00 -5.1885745651454118e-01 2.6608263753239059e+00  -4.5629343796430644e-01 2.9609265032789076e+00 1.1623995805675369e+00 2.9609265032789076e+00 2.5811671203819859e+00 -2.0824132005103340e+00 1.1623995805675369e+00 -2.0824132005103340e+00 2.5682086949215535e+00  -1.7867272764071256e+00 2.3010498303892781e+00 4.4625753689251313e-01 2.3010498303892755e+00 2.2129534076061708e+00 -1.1850859643391805e+00 4.4625753689251318e-01 -1.1850859643391805e+00 3.4933922173250171e+00  3.6683728317766806e+00 3.6628382941202275e+00 1.3040659625243132e+00 3.6628382941202275e+00 8.7072186423850173e-01 -3.1408407679264529e+00 1.3040659625243132e+00 -3.1408407679264529e+00 3.0078272041798177e+00  1.3547939727439597e+00 3.2915102101502520e+00 4.9585743519097653e-01 3.2915102101502520e+00 3.9566238735585524e-01 -2.0384081748033842e+00 4.9585743519097653e-01 -2.0384081748033842e+00 2.6606841757644499e+00  -2.2474650986245681e+00 5.9521759658413764e-01 -1.0162869548170506e+00 5.9521759658413764e-01 1.6462977494130957e+00 -8.1866314840133891e-01 -1.0162869548170497e+00 -8.1866314840133869e-01 2.8457396996989153e+00  -3.1507532078975925e-01 -1.9983854084398807e+00 6.8458837352268975e-01 -1.9983854084398807e+00 -4.7241726422462649e-01 -1.0661881820980865e+00 6.8458837352268975e-01 -1.0661881820980865e+00 2.9017873315032849e+00  4.6654641194897808e+00 1.7967474846816600e+00 2.6140205334192562e-02 1.7967474846816600e+00 -5.0658538118197449e-01 -3.1670731293292795e+00 2.6140205334192569e-02 -3.1670731293292795e+00 1.0832642124495218e+00  -5.3902102761172514e-02 3.2500443126556617e+00 2.6043934263540941e-01 3.2500443126556617e+00 7.9440419331133383e-01 -1.3679633961427715e+00 2.6043934263540941e-01 -1.3679633961427715e+00 3.7396027720110547e+00  2.0900124376644373e+00 2.2408534465778205e+00 -3.2794276553232976e-01 2.2408534465778205e+00 -1.7980360357241010e+00 -1.0876856666078518e+00 -3.2794276553232976e-01 -1.0876856666078518e+00 3.3541275977795673e+00  1.2440717325578379e+00 -2.0503306484278623e+00 7.8953245711623643e-01 -2.0503306484278623e+00 -1.5281647713039341e+00 -1.8296038921255436e-01 7.8953245711623643e-01 -1.8296038921255431e-01 3.0440478150060803e+00  -2.0200665082897887e-01 -2.4409852045589870e+00 1.1143494605785720e+00 -2.4409852045589862e+00 2.1267252006936130e-01 -7.7491937050001847e-02 1.1143494605785720e+00 -7.7491937050001791e-02 2.4165628397924808e+00  -1.3870802280728431e+00 1.7346204642101144e+00 -1.3382324507848142e+00 1.7346204642101144e+00 7.0427194114512504e-01 -4.2443752400005635e-01 -1.3382324507848142e+00 -4.2443752400005635e-01 2.8781093321065656e+00  -2.5572158771330389e+00 -1.3994735862658819e-01 7.0018273304343526e-01 -1.3994735862658816e-01 2.6649427478590635e+00 -9.2798021284899512e-01 7.0018273304343526e-01 -9.2798021284899512e-01 2.7474258559853619e+00  -3.7104509472165714e-01 -2.9882975193661312e+00 1.6943220129146681e+00 -2.9882975193661316e+00 1.3034324763626697e+00 2.5142310519426725e-02 1.6943220129146681e+00 2.5142310519426773e-02 3.0712072377217754e+00  1.8064026737409040e+00 -2.6251525526768176e+00 1.2996238201606847e+00 -2.6251525526768176e+00 -1.0857234710909960e+00 -9.2655619447991569e-02 1.2996238201606847e+00 -9.2655619447991527e-02 2.3499033038345916e+00  -1.9710915040920238e+00 -1.9385564622141584e+00 1.6006562448205464e+00 -1.9385564622141584e+00 2.9514783613225073e+00 -5.9564829200407110e-01 1.6006562448205464e+00 -5.9564829200407110e-01 2.8241326499436630e+00  -1.8809126047026246e+00 -1.6780120506511518e+00 6.0973627102636119e-01 -1.6780120506511518e+00 1.8135406423285816e+00 -3.8676156935249595e-01 6.0973627102636119e-01 -3.8676156935249595e-01 2.3664306112879263e+00  5.9032816905540084e+00 1.4304959132542236e+00 -4.6635680344333624e-01 1.4304959132542236e+00 -1.6613529615934273e+00 -3.2256521238192160e+00 -4.6635680344333619e-01 -3.2256521238192160e+00 3.4151053450742102e+00  1.8179544538509789e+00 1.1721409861226115e+00 -1.5764933625855044e+00 1.1721409861226115e+00 -1.1294952548205395e+00 2.1637454163057410e+00 -1.5764933625855044e+00 2.1637454163057410e+00 2.5820733755419623e+00  7.4912516415140851e-01 -9.4645045165609876e-01 1.0567712469767070e+00 -9.4645045165609876e-01 -1.6715775622773066e+00 -3.0804096347497717e-01 1.0567712469767070e+00 -3.0804096347497717e-01 1.8727461799288110e+00  2.6307972352830671e+00 4.4529051638679579e-01 -3.1556021658270700e-01 4.4529051638679579e-01 -2.5409414689949190e+00 -5.6609995810684655e-01 -3.1556021658270700e-01 -5.6609995810684643e-01 2.1286851600528229e+00  2.9838724166899717e+00 2.5159894418402202e+00 1.9941223675549044e-01 2.5159894418402202e+00 -7.7799607712568042e-01 -2.3367444431884907e+00 1.9941223675549044e-01 -2.3367444431884907e+00 1.9321180768939561e+00  1.5446952751888869e+00 -1.5815649151406710e+00 1.1020570640570455e+00 -1.5815649151406710e+00 -1.3263981920124055e+00 4.0696061769813363e-01 1.1020570640570460e+00 4.0696061769813346e-01 1.2761347355428536e+00  5.0454307389342379e+00 5.2168272920245840e-01 -9.0133225163868258e-01 5.2168272920245817e-01 -2.4379663508205809e+00 -2.1964506762976401e+00 -9.0133225163868280e-01 -2.1964506762976401e+00 2.8630920184873161e+00  5.9153334012393213e+00 2.5852037186865784e-01 -8.5042112126865144e-01 2.5852037186865778e-01 -1.5480421083098110e+00 -3.2565474298492481e+00 -8.5042112126865144e-01 -3.2565474298492481e+00 2.7389679020444011e+00  5.2369308211944068e+00 2.0946218156860796e+00 -5.7228771519928257e-01 2.0946218156860796e+00 -2.2813545700737388e+00 -2.0719846179414421e+00 -5.7228771519928257e-01 -2.0719846179414421e+00 3.2613656947209302e+00  2.0000444351176383e+00 -6.0724010238832205e-01 -6.9999681578240702e-01 -6.0724010238832205e-01 -1.5864383296369597e+00 2.9822478762407725e+00 -6.9999681578240702e-01 2.9822478762407738e+00 3.7380409772599519e+00  7.8808799177397651e-02 -1.2847779365624065e-01 6.6723996115943229e-01 -1.2847779365624065e-01 1.0869993422313720e-01 -2.2473960422114800e-01 6.6723996115943229e-01 -2.2473960422114814e-01 -5.6694149260184523e-01  1.3147435194276518e+00 -7.9834868462699349e-01 1.1949572876819337e+00 -7.9834868462699349e-01 -2.3101845216930439e+00 -9.7582126673595379e-02 1.1949572876819337e+00 -9.7582126673595004e-02 2.6198504377263498e+00  4.3418318104745762e-01 -5.0249380936196142e-01 9.4384471299549455e-01 -5.0249380936196142e-01 -3.5683756296513858e-01 -9.3251978338122021e-01 9.4384471299549455e-01 -9.3251978338122021e-01 5.0563430842238605e-02  5.3135510049516865e+00 7.6060078263190978e-01 -4.5081637127671259e-01 7.6060078263190978e-01 -7.0187190012407319e-01 -3.4691524349329574e+00 -4.5081637127671254e-01 -3.4691524349329574e+00 1.2367559605305327e+00  4.0802526871446023e+00 8.6472945487780795e-01 -3.8042500898198806e-01 8.6472945487780795e-01 -1.2167483330512423e+00 -2.5698689374107944e+00 -3.8042500898198800e-01 -2.5698689374107944e+00 7.3553095109635847e-01  5.6396678814264094e+00 1.8109085192533958e+00 -1.0924051322533775e-01 1.8109085192533958e+00 -4.6086168263255844e-01 -3.6932290520652131e+00 -1.0924051322533775e-01 -3.6932290520652131e+00 1.9735019322484646e+00  3.4751652618168891e+00 2.3486275343218382e-01 -6.9859495393192594e-01 2.3486275343218382e-01 -2.3728721211788737e+00 -1.5140324707469901e+00 -6.9859495393192594e-01 -1.5140324707469901e+00 2.0692977052620889e+00  3.4264547408401365e+00 1.7632064740639006e-01 -8.2752593907878769e-01 1.7632064740639003e-01 -2.6857687785598201e+00 -1.1581947088897639e+00 -8.2752593907878769e-01 -1.1581947088897639e+00 2.9265500053178020e+00  3.6843912584457592e+00 1.5586797330258859e+00 -1.9686620831009907e-01 1.5586797330258859e+00 -1.4627671084881249e+00 -2.2440728147847322e+00 -1.9686620831009907e-01 -2.2440728147847322e+00 1.3937562257723708e+00  2.7819196987826653e+00 7.4310321814011718e-02 -6.3397175550151452e-01 7.4310321814011718e-02 -2.6670099857246576e+00 -5.5301374633674183e-01 -6.3397175550151452e-01 -5.5301374633674172e-01 2.5627167260642145e+00  1.9067798556508673e+00 -3.9419305470265409e-01 -4.5826626312504348e-01 -3.9419305470265409e-01 -2.1624048021082052e+00 1.0424111173513060e+00 -4.5826626312504348e-01 1.0424111173513058e+00 1.9681624639418758e+00  3.0228630293660705e+00 1.1776285415204413e+00 -5.4299256507190408e-01 1.1776285415204413e+00 -2.4415672375954696e+00 -1.3545790769027439e+00 -5.4299256507190408e-01 -1.3545790769027439e+00 3.0811492521242174e+00  1.8888304276240466e+00 -6.3245958204591024e-01 -4.1819074725627092e-01 -6.3245958204591024e-01 -1.7023775528777909e+00 2.2461107083406850e+00 -4.1819074725627081e-01 2.2461107083406833e+00 2.5354820650426553e+00  1.8883513401127525e+00 1.6216226180904350e-01 -1.1526741413333808e+00 1.6216226180904350e-01 -1.5026806925754648e+00 2.8240445703379264e+00 -1.1526741413333808e+00 2.8240445703379264e+00 3.4757684871100767e+00  1.8842891183110946e+00 4.4501242902824928e-01 -3.9692126178913634e-01 4.4501242902824928e-01 -2.2867934253364406e+00 5.5223429486938846e-01 -3.9692126178913634e-01 5.5223429486938846e-01 2.1782808952029415e+00  2.5040753310989614e+00 -2.2660172714841678e+00 1.3222394817969076e+00 -2.2660172714841669e+00 -1.7595121652909151e+00 1.2335049859534601e-01 1.3222394817969079e+00 1.2335049859534604e-01 2.7073629243291371e+00  2.0423001692231839e+00 -1.8932125237413588e+00 1.2135169265388790e+00 -1.8932125237413582e+00 -1.6897595473538936e+00 -2.7026393149152114e-02 1.2135169265388790e+00 -2.7026393149152152e-02 1.9831927964525242e+00  1.0556359041234982e+00 -2.3211994025841447e+00 1.2611697179834931e+00 -2.3211994025841447e+00 -5.5302657000900790e-01 5.9781931867254404e-02 1.2611697179834931e+00 5.9781931867254168e-02 1.5351352939968550e+00  2.8408474419216487e+00 -1.6879290589356173e+00 1.1511216152923460e+00 -1.6879290589356173e+00 -2.1479783010624711e+00 6.5372382103695714e-01 1.1511216152923458e+00 6.5372382103695714e-01 2.7556457519849067e+00  3.0064012026171687e+00 -2.0807969971587785e+00 1.3335342142072435e+00 -2.0807969971587790e+00 -2.0026345138772230e+00 6.4973329101317279e-01 1.3335342142072435e+00 6.4973329101317256e-01 3.0584514840111261e+00  2.1821684042279230e+00 -2.7842488208791307e+00 1.4022446582913390e+00 -2.7842488208791307e+00 -1.2157593300698915e+00 2.9719668019122442e-01 1.4022446582913388e+00 2.9719668019122436e-01 3.0462167876818569e+00  1.6775344829358956e+00 -1.5204193057916462e+00 8.0015550830504167e-01 -1.5204193057916462e+00 -2.1127672126617716e+00 -2.0428823168074928e-02 8.0015550830504167e-01 -2.0428823168074928e-02 2.9762168737664414e+00  2.1275372013740070e+00 -1.6630492677959585e+00 9.1644161242243094e-01 -1.6630492677959585e+00 -2.1390628449959426e+00 2.6782631266611240e-01 9.1644161242243094e-01 2.6782631266611234e-01 2.9884357240827568e+00  1.6939358080599798e+00 -2.2748778605451103e+00 9.6164536646408139e-01 -2.2748778605451103e+00 -1.4385938605611919e+00 3.5777743097053777e-01 9.6164536646408161e-01 3.5777743097053777e-01 2.7230237281715675e+00  1.3427621371101341e+00 -1.7449181305082113e+00 9.1043295976251437e-01 -1.7449181305082113e+00 -1.7769147898825048e+00 -2.8983276636546701e-01 9.1043295976251437e-01 -2.8983276636546706e-01 2.6649323904487723e+00  1.9857259278816242e+00 4.2194438578271098e+00 7.7538488732507160e-01 4.2194438578271098e+00 1.2436470388314640e+00 -2.5245598097213140e+00 7.7538488732507160e-01 -2.5245598097213140e+00 3.6312892008502460e+00  4.0923657897194827e+00 3.4650975120708818e+00 6.7532371276302605e-01 3.4650975120708818e+00 1.7078489655734438e-02 -2.9557072183737696e+00 6.7532371276302605e-01 -2.9557072183737696e+00 2.9420776423616823e+00  4.9363510991883102e+00 3.0068303743875897e+00 3.8102221771908756e-01 3.0068303743875897e+00 9.5128514614229026e-02 -3.7011949056329754e+00 3.8102221771908756e-01 -3.7011949056329754e+00 3.0699608605453217e+00  -1.8868950814053982e+00 2.1165328506498864e+00 1.2757767257048149e+00 2.1165328506498864e+00 3.5031064361080508e+00 -1.6515219143796307e+00 1.2757767257048149e+00 -1.6515219143796307e+00 2.8707710937875821e+00  -4.7531433084418484e-01 3.4967768525327334e+00 1.0044438484864022e+00 3.4967768525327334e+00 2.8065379259702792e+00 -1.9456387768347474e+00 1.0044438484864022e+00 -1.9456387768347474e+00 3.2880439297548074e+00  1.0623969173214132e+00 3.8431295637051743e+00 2.0240759586322925e+00 3.8431295637051743e+00 3.0774517299363748e+00 -2.4743893691938994e+00 2.0240759586322929e+00 -2.4743893691938994e+00 3.1865042702449071e+00  -2.0931624966360305e+00 -8.1329812682730751e-01 1.6347545145834497e+00 -8.1329812682730751e-01 2.8308260489832091e+00 -1.1177408207231343e+00 1.6347545145834503e+00 -1.1177408207231343e+00 2.0545299173903437e+00  -2.2988855181552252e+00 5.2403046640356366e-01 1.6977773910868055e+00 5.2403046640356366e-01 3.6552443229382496e+00 -1.4188322846382058e+00 1.6977773910868055e+00 -1.4188322846382058e+00 2.5955405352892775e+00  -2.0861842137626359e+00 1.3203147530078951e+00 1.7975496314006061e+00 1.3203147530078956e+00 4.2771708797933163e+00 -1.6877865717650240e+00 1.7975496314006061e+00 -1.6877865717650240e+00 2.9387302547851482e+00  1.2524548994825868e-01 -2.1822179512973614e+00 1.3043710792278491e+00 -2.1822179512973605e+00 3.2742550946390961e-02 -1.1079754452254814e-01 1.3043710792278496e+00 -1.1079754452254806e-01 1.5674386471157684e+00  -6.6089718440432854e-01 -2.3546413789267264e+00 1.7844328378832124e+00 -2.3546413789267264e+00 1.2712211861773302e+00 -5.7644778553457854e-01 1.7844328378832124e+00 -5.7644778553457876e-01 2.0050418250738278e+00  -1.0396612009664736e+00 -2.3188873845797189e+00 1.7495931168456429e+00 -2.3188873845797184e+00 1.8081500866410181e+00 -5.0024638018351908e-01 1.7495931168456429e+00 -5.0024638018351908e-01 2.0601031753359167e+00  -1.7305758849309825e+00 -1.6622840423924423e+00 1.4864434784077487e+00 -1.6622840423924423e+00 2.3223203554234266e+00 -4.8821327569360062e-01 1.4864434784077487e+00 -4.8821327569360062e-01 2.1839453585664521e+00  -2.3859747029049223e+00 -8.4885642037595810e-01 1.8350126194645122e+00 -8.4885642037595821e-01 3.4532601417799196e+00 -1.0621022124592379e+00 1.8350126194645120e+00 -1.0621022124592381e+00 2.6655831451856797e+00  3.6520419887924266e-01 -2.8169191504884932e+00 1.4402949431720125e+00 -2.8169191504884923e+00 1.5661478298558484e-01 -1.8950710920266983e-01 1.4402949431720127e+00 -1.8950710920266986e-01 2.3234290929224044e+00  -3.0425940356791609e-01 -1.1428269877003041e+00 8.9190745600798027e-01 -1.1428269877003041e+00 9.9306489159337649e-03 -1.5255101219145439e+00 8.9190745600798027e-01 -1.5255101219145439e+00 1.0999881800728215e+00  -1.8140426819966934e-01 -1.0339820574441896e+00 9.1862693414968688e-01 -1.0339820574441896e+00 -5.7648252261595678e-01 -8.4766133712360603e-01 9.1862693414968688e-01 -8.4766133712360603e-01 1.5185831312253162e+00  3.7363364058470411e-01 -1.6416551111027724e+00 1.0383247825081279e+00 -1.6416551111027724e+00 -1.2668871847103951e+00 -7.4350507960906453e-01 1.0383247825081279e+00 -7.4350507960906453e-01 2.4959202278544383e+00  -1.5655857474950208e+00 -5.2612822018642624e-01 -6.8296055373893871e-01 -5.2612822018642624e-01 6.0251416568172089e-01 -1.5870120975978477e+00 -6.8296055373893871e-01 -1.5870120975978477e+00 2.4464778806538887e+00  -1.3647281619407998e+00 -3.8725648164831156e-01 -9.0805162711433643e-02 -3.8725648164831161e-01 2.3708623679881957e-01 -9.3910058193319768e-01 -9.0805162711433712e-02 -9.3910058193319768e-01 1.6510424284920779e+00  -1.4686238251473256e+00 -1.6335322111503885e+00 2.5049517443511893e-01 -1.6335322111503885e+00 3.1607799270921305e-01 -8.3863613136691362e-01 2.5049517443511898e-01 -8.3863613136691362e-01 3.0782706221971794e+00  -1.3932254357019369e+00 5.4313078014286853e-01 -1.8927850545714564e+00 5.4313078014286842e-01 7.5186984723320860e-01 -8.0445144161766113e-01 -1.8927850545714566e+00 -8.0445144161766136e-01 2.2665104364840785e+00  -1.5369584032499370e+00 5.9688912869164685e-03 -1.4328164938903509e+00 5.9688912869164685e-03 7.2836475929675903e-01 -1.1669712462413766e+00 -1.4328164938903509e+00 -1.1669712462413766e+00 2.2673626439702672e+00  -2.3121340770252483e+00 -6.1430815403848552e-02 -7.9259100800783433e-01 -6.1430815403848635e-02 1.5534710005922738e+00 -9.1619665804132611e-01 -7.9259100800783433e-01 -9.1619665804132611e-01 2.9809952681688610e+00  -5.9921030912175355e-01 1.3261482084520233e+00 -2.2891814907447938e+00 1.3261482084520233e+00 6.3513798484963913e-02 1.7996127033305720e-01 -2.2891814907447943e+00 1.7996127033305720e-01 2.8841474508207696e+00  -1.4260843397496097e+00 9.4482343479012243e-01 -1.9681760044077898e+00 9.4482343479012243e-01 7.9386731201132599e-01 -6.2688265305288549e-01 -1.9681760044077898e+00 -6.2688265305288549e-01 2.6040243946044552e+00  -2.0770722937793202e+00 1.2839224498930111e+00 -1.0215668920751708e+00 1.2839224498930111e+00 1.2267462652782337e+00 -6.3769589788887859e-01 -1.0215668920751708e+00 -6.3769589788887859e-01 2.9631109551534567e+00  6.0302042032492686e-01 1.3165858823790806e+00 -2.2778978333169455e+00 1.3165858823790806e+00 -8.0807410818137515e-01 1.4439707190654330e+00 -2.2778978333169455e+00 1.4439707190654330e+00 3.3131609478404367e+00  -1.8740229432133237e-01 1.5546084228945205e+00 -2.3505359378185773e+00 1.5546084228945205e+00 -1.5529774822069511e-01 5.9435982216650041e-01 -2.3505359378185777e+00 5.9435982216650041e-01 2.8957843089289108e+00  -8.0489753069890624e-01 1.9203686943822720e+00 -1.3181525715899092e+00 1.9203686943822720e+00 2.1116319617084184e-01 1.1131518191088866e-01 -1.3181525715899096e+00 1.1131518191088866e-01 2.8997567395648365e+00  1.7810672403457271e+00 2.9309418639228740e-01 -1.6544851857162850e+00 2.9309418639228740e-01 -1.3350256569782144e+00 2.6883933252917269e+00 -1.6544851857162850e+00 2.6883933252917269e+00 3.3144868001142394e+00  1.5168263583774328e+00 7.3154616138128103e-01 -2.0697262810419916e+00 7.3154616138128103e-01 -1.1988608879822658e+00 2.2241793178390772e+00 -2.0697262810419916e+00 2.2241793178390772e+00 3.1359744921204213e+00  9.6642528071340916e-01 1.6919991552901696e+00 -1.3959380835745896e+00 1.6919991552901696e+00 -1.2876144229813076e+00 1.1612639722968343e+00 -1.3959380835745896e+00 1.1612639722968343e+00 2.8615037169664541e+00  1.9625910613355222e+00 5.9604342347421724e-01 -1.0329985418592593e+00 5.9604342347421724e-01 -1.8013387111586074e+00 1.9721530239251874e+00 -1.0329985418592593e+00 1.9721530239251874e+00 2.5908359813306463e+00  3.7812072187339010e+00 2.1419770704812926e+00 1.6530336974260887e-01 2.1419770704812926e+00 -5.9303136863833106e-01 -2.8303005270589385e+00 1.6530336974260887e-01 -2.8303005270589385e+00 1.3350416779526206e+00  3.3188517763835641e+00 1.9718396194074719e+00 -2.5515114840073294e-01 1.9718396194074719e+00 -1.8126020019249744e+00 -1.8471858853286716e+00 -2.5515114840073294e-01 -1.8471858853286716e+00 2.5631884856754823e+00  2.3199819511812168e+00 1.4511168159911672e+00 -2.6824027498925712e-01 1.4511168159911672e+00 -2.2572642313416527e+00 -1.1266428236488153e+00 -2.6824027498925712e-01 -1.1266428236488153e+00 2.8568278747358180e+00  3.0240591435095032e+00 1.8427802751407791e+00 -4.7880929795414984e-01 1.8427802751407791e+00 -2.1971949834403448e+00 -1.4369981752540339e+00 -4.7880929795414984e-01 -1.4369981752540339e+00 3.5962707540144687e+00  2.6262298667082473e+00 2.5436590728953763e+00 -2.5609252712328212e-01 2.5436590728953763e+00 -1.5816800474432509e+00 -1.6443920778970271e+00 -2.5609252712328212e-01 -1.6443920778970271e+00 3.4107196230525911e+00  -2.4340195908928330e+00 4.2827632658156550e-01 1.7870924754168516e+00 4.2827632658156539e-01 4.4652281243523921e+00 -1.4784651271934190e+00 1.7870924754168516e+00 -1.4784651271934190e+00 2.8976534426154297e+00  -1.6993054385750743e+00 1.5563040565736985e+00 2.0041552486141039e+00 1.5563040565736985e+00 4.3414028645883107e+00 -2.0145509414228684e+00 2.0041552486141039e+00 -2.0145509414228684e+00 2.7153739560465282e+00  -1.7255001225114266e+00 2.1173577257037453e+00 1.4368537338142140e+00 2.1173577257037453e+00 3.6223786660590744e+00 -1.7412744408051666e+00 1.4368537338142140e+00 -1.7412744408051666e+00 2.8427032788687678e+00  -2.0260936504953939e-01 2.7767924262547390e+00 1.9021543740101836e+00 2.7767924262547390e+00 3.9640874992932944e+00 -2.6584045786152029e+00 1.9021543740101836e+00 -2.6584045786152029e+00 2.3339354514887747e+00  9.3661640484890030e-01 3.5585219985180037e+00 1.4527443082302753e+00 3.5585219985180032e+00 2.4682685029502949e+00 -2.5617572533095641e+00 1.4527443082302749e+00 -2.5617572533095641e+00 2.4573765342669218e+00  4.4395430399845504e-01 -2.3950462672236124e+00 9.1784738912781072e-01 -2.3950462672236124e+00 -6.7348239813330668e-01 -7.6970500972020531e-02 9.1784738912781072e-01 -7.6970500972020545e-02 2.8044556568699712e+00  1.0625021652828233e+00 -2.4095461420128688e+00 1.4981283506328935e+00 -2.4095461420128683e+00 -8.0147293019263433e-01 3.1995410825500475e-01 1.4981283506328935e+00 3.1995410825500475e-01 2.5769952276276742e+00  -1.4337517179028489e-01 -2.6909437827431590e+00 1.6613356284944139e+00 -2.6909437827431590e+00 6.3037594473570335e-01 1.4256060304809692e-01 1.6613356284944136e+00 1.4256060304809692e-01 2.7954077163264737e+00  1.2639063335766747e+00 -2.8986393448085219e+00 1.6800784616239033e+00 -2.8986393448085219e+00 -4.3237744989102256e-01 3.6685197928900948e-01 1.6800784616239033e+00 3.6685197928900942e-01 2.8211491732347223e+00  8.5940794986811564e-01 -3.0416172236196104e+00 1.5880034723455756e+00 -3.0416172236196104e+00 -3.0930577771779183e-02 -1.2665566788443824e-02 1.5880034723455758e+00 -1.2665566788443713e-02 2.6903986936604163e+00  -2.5700780996174819e+00 3.0602689741405836e-01 1.8599409295483774e-02 3.0602689741405836e-01 2.2519737501866079e+00 -9.6640420150901840e-01 1.8599409295483791e-02 -9.6640420150901840e-01 2.7645718564891339e+00  -2.5120174117485510e+00 -3.9911472481518639e-01 -1.1785978299663505e-01 -3.9911472481518639e-01 2.1715580992632724e+00 -8.9764991971975949e-01 -1.1785978299663499e-01 -8.9764991971975949e-01 2.8444728895953633e+00  -2.0110483460130602e+00 -1.5132621527986228e+00 2.0817791785668774e-01 -1.5132621527986228e+00 1.6343045367910827e+00 -7.6804578274677149e-01 2.0817791785668771e-01 -7.6804578274677149e-01 2.9709646392890230e+00  -1.5182776811014926e+00 -1.8594069173752126e+00 3.6632278711246175e-01 -1.8594069173752126e+00 8.6368553612366128e-01 -6.8476125087848994e-01 3.6632278711246175e-01 -6.8476125087848982e-01 3.1502398431267449e+00  -2.3287026246844018e+00 -8.6554717979038676e-01 6.5603806273378840e-01 -8.6554717979038720e-01 2.2393015492087787e+00 -8.4587341544863726e-01 6.5603806273378851e-01 -8.4587341544863726e-01 2.5172445295488006e+00  -1.5079555041690965e-01 2.7440676960980221e+00 -1.6890015771077155e-01 2.7440676960980230e+00 4.1728221148207061e-02 -8.4785204171425443e-01 -1.6890015771077155e-01 -8.4785204171425443e-01 3.1312242993405763e+00  -9.9776701049631134e-01 2.9692393630667384e+00 4.0049603788815080e-01 2.9692393630667384e+00 1.7154716845280347e+00 -1.2535364407968510e+00 4.0049603788815080e-01 -1.2535364407968510e+00 3.5480702866629485e+00  -8.9633971699073078e-01 2.5813286268231344e+00 -2.2556584992674292e-01 2.5813286268231348e+00 6.2891853545722010e-01 -7.8078898286282805e-01 -2.2556584992674300e-01 -7.8078898286282805e-01 3.1843447185736946e+00  -1.7944918746688843e+00 2.0363680667653004e+00 -2.1072945329352036e-01 2.0363680667653004e+00 1.5920741801392189e+00 -8.2416450733869540e-01 -2.1072945329352019e-01 -8.2416450733869540e-01 2.8803430739444891e+00  8.1286631781807617e-01 2.5002328889553955e+00 -2.9134136037342090e-01 2.5002328889553955e+00 -1.0258080029207310e+00 -6.4053662630796848e-01 -2.9134136037342084e-01 -6.4053662630796848e-01 2.8059730715208877e+00  1.3237540983852616e+00 3.0131946748324032e+00 -2.2935878172877816e-02 3.0131946748324032e+00 -7.8939569774851948e-01 -1.2997745504574478e+00 -2.2935878172877816e-02 -1.2997745504574478e+00 3.8185646508570543e+00  1.3918345477457368e+00 1.6077868408884486e+00 -6.4932132720623459e-01 1.6077868408884486e+00 -1.9356655105831402e+00 2.4628743035992290e-01 -6.4932132720623459e-01 2.4628743035992290e-01 2.6927279563365323e+00  1.8091987205628670e+00 1.3964113320316851e+00 -5.9893688950539847e-01 1.3964113320316851e+00 -2.1749696172297708e+00 -1.5500244600884248e-02 -5.9893688950539847e-01 -1.5500244600884248e-02 2.5998589090330113e+00  -2.5990895187188640e-01 -3.0298831518477702e+00 1.6386548385488324e+00 -3.0298831518477716e+00 1.1682496382336207e+00 -2.1788113546877849e-01 1.6386548385488329e+00 -2.1788113546877849e-01 2.9548013984810431e+00  -8.7045110279179716e-01 -2.7297355673657613e+00 1.6480621047792576e+00 -2.7297355673657613e+00 1.8317235093009294e+00 -3.7555203083900240e-01 1.6480621047792570e+00 -3.7555203083900240e-01 2.5464992268736086e+00  -2.3439876851267991e+00 -9.9321794043372547e-01 1.8963074366889792e+00 -9.9321794043372547e-01 3.9489270082006716e+00 -9.9272839993977535e-01 1.8963074366889785e+00 -9.9272839993977557e-01 3.0228715731448137e+00  -2.6013001442972565e+00 -4.0765622154415748e-01 1.6049632311865809e+00 -4.0765622154415759e-01 4.0186224103395496e+00 -9.4200900845023716e-01 1.6049632311865809e+00 -9.4200900845023716e-01 2.8985687328190086e+00  -1.9509809952349948e+00 -1.8435219451385494e+00 1.8475708148843752e+00 -1.8435219451385492e+00 3.1819091900793439e+00 -5.9134292001266120e-01 1.8475708148843752e+00 -5.9134292001266120e-01 2.7976633092040544e+00  -2.4525354284054868e+00 -6.6227014916566196e-01 1.2810933965077587e+00 -6.6227014916566185e-01 3.0656855330379749e+00 -8.0376442811304849e-01 1.2810933965077587e+00 -8.0376442811304849e-01 2.7563510140663232e+00  -2.6075905060963276e+00 4.8138729616710657e-01 1.2300024795730349e+00 4.8138729616710657e-01 3.5904448445510533e+00 -1.0841243473327076e+00 1.2300024795730349e+00 -1.0841243473327076e+00 2.9716891447925704e+00  -2.1482780685701428e+00 1.9101751303066072e+00 9.9191218232818845e-01 1.9101751303066077e+00 3.2492261102981792e+00 -1.2814359254381160e+00 9.9191218232818845e-01 -1.2814359254381158e+00 3.1831912050471169e+00  -1.3580185777536857e+00 2.7530699818778213e+00 8.3309976266848595e-01 2.7530699818778213e+00 2.6097903623858039e+00 -1.4716062431537771e+00 8.3309976266848595e-01 -1.4716062431537773e+00 3.3581462822974841e+00  -2.4589021442810965e+00 1.1625386022770032e+00 7.1824368394004812e-01 1.1625386022770032e+00 2.8429790693460122e+00 -1.1773054121656095e+00 7.1824368394004812e-01 -1.1773054121656095e+00 3.1067590737196453e+00  -1.1441546619307226e+00 -2.5661641052509228e+00 1.6593727197004753e+00 -2.5661641052509241e+00 1.9393069830256535e+00 -1.1188936641169715e-01 1.6593727197004751e+00 -1.1188936641169715e-01 2.8849128477983537e+00  -1.1252830936628411e+00 -2.2113232044187896e+00 1.6347154427110970e+00 -2.2113232044187892e+00 1.4425116601458869e+00 -1.2771376789987290e-01 1.6347154427110970e+00 -1.2771376789987290e-01 2.7315713301641447e+00  -1.0703346341156721e+00 -2.1663738941387942e+00 1.1499764345716146e+00 -2.1663738941387942e+00 9.6936419336117507e-01 -3.7657248158696843e-01 1.1499764345716146e+00 -3.7657248158696843e-01 2.6264750565994310e+00  -1.7227626787593275e+00 -1.7568036460709855e+00 1.4987384928027401e+00 -1.7568036460709853e+00 2.1427592024785769e+00 -4.8198232358933046e-01 1.4987384928027399e+00 -4.8198232358933046e-01 2.5270860560448387e+00  -4.0620569290112046e-01 3.2553930686150272e+00 5.7184019341350856e-01 3.2553930686150268e+00 1.6333935792708147e+00 -1.5564342346601230e+00 5.7184019341350856e-01 -1.5564342346601232e+00 3.4528958092527251e+00  5.4098348665340168e-01 3.3095252511524489e+00 8.3130207266832201e-01 3.3095252511524489e+00 1.5413631547541149e+00 -2.0936129275294144e+00 8.3130207266832201e-01 -2.0936129275294144e+00 2.4348180274904618e+00  2.0760762736701448e+00 3.2878641247011289e+00 1.1710276840016838e+00 3.2878641247011289e+00 1.3931483706612033e+00 -2.8607318208065142e+00 1.1710276840016836e+00 -2.8607318208065142e+00 2.0130246979194819e+00  7.5657683668071674e-01 3.4152723569690537e+00 2.6298474703889130e-01 3.4152723569690537e+00 4.2466919399809444e-01 -1.6367903346780430e+00 2.6298474703889119e-01 -1.6367903346780430e+00 3.6652614617338641e+00  -2.2210259346743602e+00 1.4490962050843641e+00 -1.2670792756805316e-01 1.4490962050843641e+00 1.8232095787171287e+00 -8.6887455544376957e-01 -1.2670792756805321e-01 -8.6887455544376957e-01 2.9109338818530213e+00  2.3205856911175151e+00 2.9202661777333967e+00 2.6862666097786192e-01 2.9202661777333967e+00 -3.5711720016813975e-01 -2.2851191930810688e+00 2.6862666097786186e-01 -2.2851191930810688e+00 2.3099067365936925e+00  3.2432226982443666e+00 2.9829776686465861e+00 8.1533889523734748e-01 2.9829776686465861e+00 7.8272551088702713e-01 -3.2568720704798197e+00 8.1533889523734748e-01 -3.2568720704798197e+00 1.6949814724769467e+00  4.3646772799250293e+00 2.7231598049981258e+00 7.0303798458654343e-01 2.7231598049981258e+00 5.7977396653269408e-01 -3.6889939374608876e+00 7.0303798458654354e-01 -3.6889939374608876e+00 1.8300146144117129e+00  1.8772924364483976e+00 3.0884483028892933e+00 -4.5505337704599788e-02 3.0884483028892933e+00 -8.3329685605816861e-01 -1.6691674376519248e+00 -4.5505337704599760e-02 -1.6691674376519248e+00 3.6703829668937313e+00  -4.2553973484624713e-01 -2.2546497419171967e+00 6.8186081916235197e-01 -2.2546497419171967e+00 -7.9860838718663202e-02 -4.9912256336295752e-01 6.8186081916235197e-01 -4.9912256336295752e-01 2.8677148592866359e+00  3.1952113935814480e-01 -2.1982727225323475e+00 8.1114252357032091e-01 -2.1982727225323475e+00 -8.4735584826770072e-01 -5.5658293160154571e-01 8.1114252357032091e-01 -5.5658293160154548e-01 3.0157402699650171e+00  1.2545626141395660e+00 -5.8045501844999157e+00 -2.6790660510854232e+00 -5.8045501844999183e+00 5.5639628439632700e+00 3.7156242748133017e-01 -2.6790660510854232e+00 3.7156242748133017e-01 4.7829705668106550e+00  6.3226937120684816e+00 -7.7173059964168056e-01 -1.3420687368751749e+00 -7.7173059964168045e-01 -7.6216260314714046e-01 4.3195955139940256e+00 -1.3420687368751751e+00 4.3195955139940256e+00 3.6189821797574968e+00  9.5659231935253164e-01 5.0392354718676184e+00 2.1299935805905026e+00 5.0392354718676184e+00 6.0468520084554944e+00 -1.8959763044566234e+00 2.1299935805905026e+00 -1.8959763044566234e+00 3.4836723808550274e+00  8.3171419679249237e+00 3.9681716768163176e+00 -5.6138421071423535e-02 3.9681716768163184e+00 -2.5885202261602941e-01 -2.5234404050354353e+00 -5.6138421071423583e-02 -2.5234404050354353e+00 1.7270386488020912e+00  -1.4059735568321521e+00 3.6775957228436154e+00 -2.0937985155336380e+00 3.6775957228436154e+00 5.6024344692161598e+00 2.7074991464003834e-01 -2.0937985155336380e+00 2.7074991464003828e-01 5.8575687115346833e+00  2.1172297036736079e+00 -6.0303851535304345e+00 -3.5054158473828041e+00 -6.0303851535304345e+00 6.3005911070548422e+00 7.0387191450584585e-01 -3.5054158473828041e+00 7.0387191450584585e-01 3.9028657732431942e+00  8.5120871988690290e+00 -3.6315679247323835e+00 -2.6993769921061421e+00 -3.6315679247323835e+00 -4.7438528710166988e-01 -2.4248609846759805e+00 -2.6993769921061421e+00 -2.4248609846759810e+00 3.8525301995238403e+00  6.1910610091392932e+00 -4.4228994005953783e+00 -1.8904561322456417e+00 -4.4228994005953783e+00 -1.0299173458853836e+00 -8.6280843257374074e-01 -1.8904561322456417e+00 -8.6280843257374074e-01 5.9427968853212159e+00  8.4492296099363902e+00 4.8244209876377392e-01 -1.1973564670885724e+00 4.8244209876377392e-01 -2.6781339008387341e+00 -2.4867610237230009e+00 -1.1973564670885721e+00 -2.4867610237230009e+00 5.5725497267747137e+00  2.1036847043318829e+00 -4.4835181626187364e+00 2.4915068511199174e+00 -4.4835181626187364e+00 4.5205988916044495e+00 2.7762095102786808e+00 2.4915068511199174e+00 2.7762095102786808e+00 2.9809980092609067e+00  -9.3823400664815559e-01 4.4422693630099932e+00 8.0961438745800229e-01 4.4422693630099923e+00 5.8490664648168424e+00 -1.8066878718272155e+00 8.0961438745800229e-01 -1.8066878718272155e+00 6.0542436958538257e+00  2.0420062318076275e+00 5.1913390074579482e+00 -1.4035413504083492e+00 5.1913390074579482e+00 1.6673065014359805e+00 -2.2578381519305135e-01 -1.4035413504083492e+00 -2.2578381519305135e-01 6.7978891721502093e+00  2.7890165167150904e+00 5.2630153214171527e+00 1.2478565347578285e+00 5.2630153214171527e+00 2.4088799481638317e+00 -2.3189457457829525e+00 1.2478565347578285e+00 -2.3189457457829525e+00 5.8260382167786542e+00  7.1582048434925740e+00 -2.9991373389537979e-01 -1.3081674484339276e+00 -2.9991373389537979e-01 -3.0187597299157911e+00 2.0263425212249211e+00 -1.3081674484339274e+00 2.0263425212249215e+00 7.0833620905484684e+00  5.7007783362447553e+00 4.2383188627675406e+00 -7.9157256512689500e-01 4.2383188627675414e+00 -1.3930909956986672e+00 -1.1836122466028556e+00 -7.9157256512689500e-01 -1.1836122466028556e+00 6.8775766975098804e+00  5.5234021876631365e+00 -3.3284236291623581e+00 4.8146323739007080e-01 -3.3284236291623581e+00 8.6263260856286472e-01 3.9646693757291733e+00 4.8146323739007091e-01 3.9646693757291738e+00 2.4595711527746857e+00  1.7196559450326654e+00 3.8801151920969006e+00 -3.5852000229017467e+00 3.8801151920969006e+00 2.1041850888243587e+00 1.4203292245867813e+00 -3.5852000229017467e+00 1.4203292245867813e+00 5.8433200492640829e+00  8.9790437509559506e+00 2.3810749530774014e+00 -5.7873354972092630e-02 2.3810749530774018e+00 -3.6009372757740077e-01 -3.5905739527889531e+00 -5.7873354972092519e-02 -3.5905739527889531e+00 2.0111984529659925e+00  1.0152659547528183e+01 -3.8418804608854265e+00 -2.0030340284564114e+00 -3.8418804608854269e+00 -1.1971232335021434e-01 -2.1992548434430912e+00 -2.0030340284564114e+00 -2.1992548434430912e+00 1.7601195094117952e+00  5.6284550980196233e+00 4.8615824611365568e+00 1.8266125216080564e+00 4.8615824611365568e+00 1.8095292863176726e+00 -2.6922943509705188e+00 1.8266125216080564e+00 -2.6922943509705188e+00 2.6200222196807639e+00  3.1755888967804178e+00 5.4932225097642009e+00 1.6089434779053713e+00 5.4932225097642009e+00 4.9777036876781109e+00 -2.9390353208025659e+00 1.6089434779053713e+00 -2.9390353208025659e+00 2.6789819141165263e+00  5.5166518878300783e+00 3.1450334046204982e+00 -2.7105918427407545e+00 3.1450334046204982e+00 -9.7075470296704292e-01 2.4283784907461823e+00 -2.7105918427407545e+00 2.4283784907461823e+00 5.8854571218715890e+00  -1.0301696813479479e-01 -5.0817672351889644e+00 4.8557566919871692e-01 -5.0817672351889644e+00 4.6385789967811570e+00 1.4007814080945542e+00 4.8557566919871686e-01 1.4007814080945542e+00 6.4872805168387835e+00  6.1053991702178037e+00 4.0979572831226392e+00 5.5819216206285349e-01 4.0979572831226392e+00 1.0457727963519936e-01 -3.3842282888616144e+00 5.5819216206285349e-01 -3.3842282888616144e+00 4.6506467142755614e+00  1.7861910706361381e+00 -5.5127872490325993e+00 -3.6023050826509420e+00 -5.5127872490325993e+00 7.1554264009700379e+00 -2.1777706652195406e-02 -3.6023050826509411e+00 -2.1777706652195371e-02 3.3955311527914596e+00  4.9872380685431139e+00 -4.0325892481753787e+00 3.5841540787674243e-02 -4.0325892481753787e+00 -2.4258954964479057e-01 3.4414425834193780e+00 3.5841540787674195e-02 3.4414425834193780e+00 6.2571499202468015e+00  -1.4508036810153215e+00 2.1447517791466382e+00 -3.4644448051754151e+00 2.1447517791466382e+00 4.8990951284136122e+00 6.1121108854475643e-02 -3.4644448051754146e+00 6.1121108854475657e-02 5.4915307096245476e+00  -2.3015686534183017e+00 8.0928697879061562e-01 -3.1350915690621193e+00 8.0928697879061562e-01 6.5323414401321616e+00 -5.9379677324917235e-01 -3.1350915690621193e+00 -5.9379677324917246e-01 5.3668713892454667e+00  -1.2863322926959058e+00 4.1640946921465116e-01 -4.3895201769196106e+00 4.1640946921465116e-01 4.2065304685817200e+00 -6.6092495396256412e-01 -4.3895201769196106e+00 -6.6092495396256423e-01 6.2317769428161878e+00  -4.4675493966838847e-01 2.1728657378229737e+00 -4.4412942809995926e+00 2.1728657378229737e+00 3.4234511172355444e+00 4.6938214360231356e-01 -4.4412942809995943e+00 4.6938214360231351e-01 6.4097215338176907e+00  6.7930887861827061e-01 4.0628838161525209e+00 2.6098428565928877e+00 4.0628838161525200e+00 7.9482924737869176e+00 -2.6100189442020887e+00 2.6098428565928877e+00 -2.6100189442020887e+00 2.5322637787735442e+00  -4.7760248979670704e-02 3.8311804456246921e+00 2.6263406913618379e+00 3.8311804456246921e+00 8.4749410223078971e+00 -2.2511915619350638e+00 2.6263406913618379e+00 -2.2511915619350638e+00 3.1526678400161439e+00  3.5743732207935870e+00 5.4430340338642793e+00 1.1909085425580641e+00 5.4430340338642793e+00 4.7579295887003887e+00 -3.3974403744128381e+00 1.1909085425580641e+00 -3.3974403744128381e+00 2.3443922640943970e+00  -1.4803378213059812e+00 -2.9672173300173350e+00 -3.0720485521429994e+00 -2.9672173300173350e+00 9.2787648574745827e+00 1.5321456069624482e+00 -3.0720485521429990e+00 1.5321456069624484e+00 4.3895721201198281e+00  -5.9318865580651148e-01 -2.7871585876657865e+00 -3.7110056391380484e+00 -2.7871585876657865e+00 9.5600295313328036e+00 5.3721783558420799e-01 -3.7110056391380475e+00 5.3721783558420788e-01 2.7925975352590120e+00  2.7943994554185489e+00 -5.7800174524632775e+00 -3.1709081236487395e+00 -5.7800174524632775e+00 6.7003179231794920e+00 -1.1605840287864724e+00 -3.1709081236487395e+00 -1.1605840287864726e+00 2.4792203054196911e+00  -1.0347048706427675e+00 -2.9561638494164382e+00 2.7864787100082675e+00 -2.9561638494164382e+00 4.7716767132797573e+00 1.4654465177161444e+00 2.7864787100082693e+00 1.4654465177161444e+00 4.0657161179320092e+00  -2.5594368559844538e+00 2.6355222461710186e+00 -1.6352481484977295e+00 2.6355222461710186e+00 6.9543129605615235e+00 -3.6016689274811747e-01 -1.6352481484977290e+00 -3.6016689274811747e-01 6.2168080628145521e+00  -2.3410253824028819e+00 1.5684310266339341e+00 -2.6978381809508036e+00 1.5684310266339341e+00 7.1148229812887633e+00 -3.4947020114278765e-01 -2.6978381809508036e+00 -3.4947020114278765e-01 4.9012815188392995e+00  -1.6596680873191281e+00 2.9238054400803679e+00 -2.7969556437912044e+00 2.9238054400803679e+00 5.5549785685736532e+00 -8.3322681172168823e-03 -2.7969556437912044e+00 -8.3322681172168251e-03 5.5527836530857835e+00  -2.0157801377974200e+00 2.2993940958994017e+00 2.1859437103414230e+00 2.2993940958994017e+00 8.6004078980613112e+00 -1.8035679751646692e+00 2.1859437103414230e+00 -1.8035679751646687e+00 4.4453688322352294e+00  -2.4190714614036075e+00 2.9651865072557979e+00 8.3988502759593242e-01 2.9651865072557979e+00 7.2956685272264492e+00 -1.5547006122834597e+00 8.3988502759593242e-01 -1.5547006122834597e+00 6.5029181259402327e+00  -1.3494020682862833e+00 4.2613566156252825e+00 -8.3758656230850537e-01 4.2613566156252825e+00 5.2438367152802243e+00 -6.1851416186902097e-01 -8.3758656230850537e-01 -6.1851416186902097e-01 6.7820388043613882e+00  -8.8351511007225381e-01 3.6947193565932830e+00 2.3984497696170628e+00 3.6947193565932830e+00 8.8137333044648667e+00 -1.0992744390963922e+00 2.3984497696170624e+00 -1.0992744390963922e+00 3.1332020689829085e+00  -1.7681576272957071e+00 2.6554971514254220e+00 2.2313007799607667e+00 2.6554971514254220e+00 9.0589074627874133e+00 -1.2592084151338105e+00 2.2313007799607667e+00 -1.2592084151338105e+00 3.6914963694792191e+00  -2.2937435093552130e-01 4.4894254655107240e+00 1.8368283114470663e+00 4.4894254655107240e+00 6.6797437613653958e+00 -2.1357948878293040e+00 1.8368283114470663e+00 -2.1357948878293040e+00 4.3404186680615178e+00  2.1211556959638020e+00 5.2615496603560450e+00 2.5605561512871153e+00 5.2615496603560450e+00 5.5500962062138370e+00 -1.9624061744865600e+00 2.5605561512871153e+00 -1.9624061744865600e+00 3.2855024298293780e+00  -1.7209668431500587e+00 -2.6234224498913012e+00 2.9583171945143509e+00 -2.6234224498913012e+00 7.1466013598377680e+00 1.2104509191642447e+00 2.9583171945143509e+00 1.2104509191642445e+00 5.0060510435971350e+00  -2.6120576902021906e+00 -2.9864596658273705e+00 5.3083146160810990e-01 -2.9864596658273705e+00 7.2732382221929601e+00 1.1289088151757007e+00 5.3083146160810990e-01 1.1289088151757007e+00 6.6314063145770161e+00  2.3252878565972290e+00 -4.2029013025565085e+00 2.6574685012588244e+00 -4.2029013025565085e+00 3.0951985094142889e+00 2.3816718759805231e+00 2.6574685012588239e+00 2.3816718759805231e+00 2.8322183646711512e+00  -6.0655758037459329e-01 -3.1562626115376116e+00 2.9609418272779005e+00 -3.1562626115376116e+00 6.3844353252590098e+00 1.3718073873331298e+00 2.9609418272779013e+00 1.3718073873331298e+00 3.1408483532209877e+00  7.5014426264094858e-01 -4.4837831344468855e+00 2.3348573049388825e+00 -4.4837831344468855e+00 4.8659245812026626e+00 2.6150115149338333e+00 2.3348573049388825e+00 2.6150115149338333e+00 4.7507027563758450e+00  -2.1714111138417937e+00 -3.3651856275578744e+00 -1.6669661039052299e+00 -3.3651856275578740e+00 7.8268532758831597e+00 1.3535337897007933e+00 -1.6669661039052299e+00 1.3535337897007933e+00 5.6537399375024044e+00  -1.5681849751340389e+00 -3.6644282800838317e+00 -2.4568667186422428e+00 -3.6644282800838321e+00 8.4435210483016174e+00 1.5042241425217773e+00 -2.4568667186422428e+00 1.5042241425217773e+00 4.6257131620944323e+00  4.5248297965653894e-01 -5.5374334479520959e+00 -1.9726696918348761e+00 -5.5374334479520959e+00 5.2412374301511493e+00 7.0846422988264002e-01 -1.9726696918348761e+00 7.0846422988264002e-01 5.9826510350809290e+00  -1.5418589796681907e+00 -3.7116722476355068e+00 -2.4234567021636435e+00 -3.7116722476355060e+00 9.0288376636260796e+00 1.9149620782893839e+00 -2.4234567021636435e+00 1.9149620782893839e+00 4.3612593875848686e+00  -1.6179425791917987e+00 -3.4623920765699747e+00 -2.5433563955522409e+00 -3.4623920765699747e+00 9.0844681805936265e+00 1.9380027151311408e+00 -2.5433563955522400e+00 1.9380027151311408e+00 4.6119246043343249e+00  1.3964582017393734e+00 -5.7855066493260967e+00 -3.1804522200721683e+00 -5.7855066493260967e+00 6.2393356492688010e+00 6.3606020024577159e-01 -3.1804522200721683e+00 6.3606020024577159e-01 4.2916198987410299e+00  2.0965388290582436e+00 -5.9086680853342060e+00 -3.6280341375089704e+00 -5.9086680853342060e+00 6.5416288717736650e+00 4.6376832752706487e-01 -3.6280341375089726e+00 4.6376832752706487e-01 3.7243688546355753e+00  7.3569387667268682e+00 -5.8066680150157381e+00 -2.0941157797632362e+00 -5.8066680150157364e+00 2.4074169184888197e+00 -2.3221168844621363e+00 -2.0941157797632362e+00 -2.3221168844621354e+00 2.3783545367824135e+00  1.0485365570447998e+01 -2.3248446743270437e+00 -1.3478490433081540e+00 -2.3248446743270437e+00 -1.2459861008348203e+00 -2.3776539517087207e+00 -1.3478490433081540e+00 -2.3776539517087207e+00 2.1250708780068273e+00  6.3366222672714843e+00 -6.1190774439830404e+00 -3.1237965997640376e+00 -6.1190774439830404e+00 3.2552199488658293e+00 -1.2252565652181462e+00 -3.1237965997640376e+00 -1.2252565652181460e+00 2.5251945583066675e+00  1.0257107265636666e+01 2.8642692318727039e+00 -2.6913404897957716e-01 2.8642692318727039e+00 -1.4251368967913089e+00 -2.4450517225817516e+00 -2.6913404897957710e-01 -2.4450517225817516e+00 2.3069577905253817e+00  6.5984395741724970e+00 5.1451206167587982e+00 -1.0173624668989083e-01 5.1451206167587982e+00 1.4717302357460449e+00 -3.1078941520035523e+00 -1.0173624668989074e-01 -3.1078941520035528e+00 2.3050912138892463e+00  1.0480633475825845e+01 3.0632380218636801e-01 -4.8683168269665505e-01 3.0632380218636807e-01 -1.6060565566597467e+00 -2.8528299492885485e+00 -4.8683168269665483e-01 -2.8528299492885485e+00 2.1563714905147755e+00  6.3608956123437421e+00 5.2315139586000106e+00 1.0988033879836030e+00 5.2315139586000097e+00 2.3673415424369315e+00 -2.9252645162309472e+00 1.0988033879836030e+00 -2.9252645162309459e+00 1.8705719357608055e+00  8.4429184631372500e-01 2.9251319982750941e+00 -4.0321067556591794e+00 2.9251319982750941e+00 1.3520428300705583e+00 9.8058843218036673e-01 -4.0321067556591803e+00 9.8058843218036640e-01 6.3608336924816529e+00  2.6534216178905661e+00 2.5327218550502053e+00 -3.8771294496575086e+00 2.5327218550502031e+00 8.7211431063444367e-01 2.8704834960623926e+00 -3.8771294496575086e+00 2.8704834960623926e+00 5.7373368818192247e+00  -1.6831745824014652e-01 3.3505222687145553e+00 -3.4812722379145060e+00 3.3505222687145553e+00 3.6645810052905698e+00 8.1497309069228274e-01 -3.4812722379145051e+00 8.1497309069228274e-01 5.6129336859775956e+00  4.5450051382399925e+00 2.7330846935600073e-01 -2.1641312548005081e+00 2.7330846935600073e-01 -7.2431107969121056e-01 4.1628781144924849e+00 -2.1641312548005076e+00 4.1628781144924849e+00 4.4880057752511755e+00  4.5113068851988798e+00 -8.4732456443583892e-01 -6.7158903092059252e-01 -8.4732456443583892e-01 -5.2546515720294096e-01 4.5489779864375537e+00 -6.7158903092059252e-01 4.5489779864375546e+00 4.2563325331499131e+00  4.8405684253244807e+00 2.1371954595516076e+00 -3.0821752531168705e+00 2.1371954595516076e+00 -7.7067186643750074e-01 2.9177219788498738e+00 -3.0821752531168700e+00 2.9177219788498738e+00 4.6608368050299882e+00  6.3954067782070299e+00 1.2372938663494446e+00 -2.3525947072723543e+00 1.2372938663494446e+00 -1.2904911720890848e+00 3.6151807081468070e+00 -2.3525947072723543e+00 3.6151807081468070e+00 4.8875006004890862e+00  3.5155641512051576e+00 3.7444873520312631e+00 -3.2148147882891149e+00 3.7444873520312631e+00 4.3658915084908850e-01 1.9633331863367476e+00 -3.2148147882891149e+00 1.9633331863367476e+00 5.7306254756728094e+00  4.3778499944776055e+00 -1.9294690323152655e+00 2.1671461786782148e-01 -1.9294690323152655e+00 -2.3585985562248293e-01 4.3232719947911118e+00 2.1671461786782148e-01 4.3232719947911118e+00 3.8654838489800807e+00  3.6617154624188459e+00 -3.2732134734362681e+00 1.1151051799514800e+00 -3.2732134734362681e+00 4.2183948774120567e-01 3.5559307200102679e+00 1.1151051799514800e+00 3.5559307200102679e+00 3.4912583325259177e+00  6.2037942784433939e+00 -2.1651900743349213e+00 -4.0520408910844197e-01 -2.1651900743349204e+00 -2.8367284244637050e-02 4.2789849134521987e+00 -4.0520408910844197e-01 4.2789849134521969e+00 2.7150259303528186e+00  4.1829865266817192e+00 -4.2776174241525986e+00 1.6035279134127527e+00 -4.2776174241525986e+00 2.6243962952593525e+00 3.6326244903464251e+00 1.6035279134127527e+00 3.6326244903464251e+00 2.6702081697847668e+00  4.9488880388786711e+00 -5.8634434303087364e+00 -3.0058344171079132e+00 -5.8634434303087364e+00 2.3297516071887934e+00 -8.8545632765206916e-01 -3.0058344171079132e+00 -8.8545632765206916e-01 4.3588308268565195e+00  6.1198136333934086e+00 -5.8411014692324494e+00 -3.5714807200487617e+00 -5.8411014692324494e+00 2.5043008166977847e+00 -9.8278235763168220e-01 -3.5714807200487617e+00 -9.8278235763168220e-01 3.5776412521280863e+00  4.0831047469154154e+00 -5.9927287199498940e+00 -2.2894125529201395e+00 -5.9927287199498940e+00 2.2224869812179118e+00 -7.3402182128158511e-01 -2.2894125529201395e+00 -7.3402182128158511e-01 5.3339972860993701e+00  6.9821134141210024e+00 -4.3883799296605606e+00 -2.3188474346253956e+00 -4.3883799296605606e+00 -5.9926690087212187e-01 -1.6384219859295073e+00 -2.3188474346253956e+00 -1.6384219859295073e+00 5.0804865792896665e+00  3.2655557670263686e+00 -5.8642105504494753e+00 -1.2615917137741148e+00 -5.8642105504494753e+00 1.7137222319575598e+00 2.1743286631921496e-01 -1.2615917137741148e+00 2.1743286631921496e-01 6.5461580192243183e+00  6.9706523000175196e+00 -6.7202704961419435e-01 -1.4901366467409372e+00 -6.7202704961419435e-01 -1.4406821062707824e+00 4.1043647919086927e+00 -1.4901366467409372e+00 4.1043647919086919e+00 4.8893061914337252e+00  6.5437809899129595e+00 -2.2355383160426383e+00 -7.9962242597384137e-01 -2.2355383160426388e+00 -6.5547922526302194e-01 4.4657933197995225e+00 -7.9962242597384137e-01 4.4657933197995243e+00 4.4133357987281281e+00  6.6134062605378521e+00 1.6455926423305827e+00 -2.1009441309518171e+00 1.6455926423305827e+00 -2.1864603213453706e+00 2.6584519176361687e+00 -2.1009441309518171e+00 2.6584519176361692e+00 6.3808881779375666e+00  2.3574901404081836e+00 5.4819602450801632e+00 1.7582990096739408e+00 5.4819602450801632e+00 3.9818002379779811e+00 -2.2320404884576250e+00 1.7582990096739408e+00 -2.2320404884576250e+00 4.5267692064340848e+00  7.7029570178308038e-01 5.1051157927993902e+00 1.0347001079692406e+00 5.1051157927993911e+00 4.1466446073980725e+00 -1.9953750368203580e+00 1.0347001079692406e+00 -1.9953750368203580e+00 5.6973007533941660e+00  3.3800107244717617e+00 5.4228730141353765e+00 2.2165480246187381e+00 5.4228730141353765e+00 3.7185669086150672e+00 -2.1001028747826842e+00 2.2165480246187381e+00 -2.1001028747826842e+00 3.2871597290415133e+00  4.4392170382761682e+00 5.0804426083625014e+00 1.7496985067102713e+00 5.0804426083625014e+00 2.4125218457945028e+00 -2.8606552931423415e+00 1.7496985067102713e+00 -2.8606552931423415e+00 3.8049374771097328e+00  4.6403021209903326e+00 5.0779108780407993e+00 1.3077780643573942e+00 5.0779108780408011e+00 2.7478399000048506e+00 -2.9241827461676819e+00 1.3077780643573942e+00 -2.9241827461676819e+00 2.4048502839593286e+00  8.6667103843950173e+00 2.9709146040681520e+00 3.9801403580694678e-01 2.9709146040681516e+00 -4.8568734855851159e-01 -3.0380099766343602e+00 3.9801403580694678e-01 -3.0380099766343602e+00 1.9081166181687705e+00  1.0624104606498404e+01 -1.6831870764677920e-02 -7.1725412260292021e-01 -1.6831870764677820e-02 -9.3179111705569573e-01 -3.2305701043830939e+00 -7.1725412260292021e-01 -3.2305701043830939e+00 1.5100870020061914e+00  6.7625206744452004e+00 3.9215193384415450e+00 7.3176218571219276e-01 3.9215193384415432e+00 6.5742714353354426e-01 -3.3644831552154701e+00 7.3176218571219298e-01 -3.3644831552154701e+00 2.4217146971804655e+00  7.2265460723085813e+00 4.5012941720956459e+00 1.2418219911146589e+00 4.5012941720956468e+00 9.5224291966247909e-01 -2.7273819071823389e+00 1.2418219911146589e+00 -2.7273819071823389e+00 1.9765982809959595e+00  4.9268948195709006e-01 5.2202418711283753e+00 -3.1470480034695980e-01 5.2202418711283753e+00 3.5945367363096028e+00 -9.8353691705934243e-01 -3.1470480034695980e-01 -9.8353691705934243e-01 6.6017869649254193e+00  1.8297612241116859e-01 4.7868443610733333e+00 -1.7210474755171521e+00 4.7868443610733333e+00 3.5092342840913870e+00 1.0422861787620126e-01 -1.7210474755171521e+00 1.0422861787620126e-01 6.4505411135938902e+00  1.6352306992017143e+00 4.5790294358709760e+00 -2.6208389393578702e+00 4.5790294358709760e+00 1.9743294484651852e+00 8.2765254261203114e-01 -2.6208389393578702e+00 8.2765254261203114e-01 6.3519128922009518e+00  -9.5331387429202358e-02 4.1314855523682015e+00 -2.7632025279590984e+00 4.1314855523682015e+00 3.9791674237347716e+00 6.3801936349643018e-01 -2.7632025279590984e+00 6.3801936349643018e-01 5.9815727688989773e+00  9.4325135771217798e+00 -3.6216860291271882e+00 -2.4398158898969715e+00 -3.6216860291271882e+00 5.1576072114431694e-02 -2.5255753964524508e+00 -2.4398158898969715e+00 -2.5255753964524508e+00 2.4233305751694316e+00  6.7432357384308599e+00 -5.8795532779579700e+00 -3.4190425666293351e+00 -5.8795532779579700e+00 2.7220578563073268e+00 -1.2343523496534867e+00 -3.4190425666293351e+00 -1.2343523496534869e+00 2.9271334813113827e+00  8.0539617245097617e+00 -2.2163221611406381e+00 -1.6290003642332582e+00 -2.2163221611406381e+00 -2.5481078799550305e+00 -1.6610333253888561e+00 -1.6290003642332582e+00 -1.6610333253888565e+00 5.7207967027047140e+00  8.8045820340298473e+00 -1.4765321209964495e+00 -1.7666799778465048e+00 -1.4765321209964497e+00 -1.9897286466097559e+00 -2.7243598461158061e+00 -1.7666799778465050e+00 -2.7243598461158061e+00 4.6018031600970417e+00  8.7307388830294617e+00 1.5262928890775174e+00 -7.0227321935233522e-01 1.5262928890775174e+00 -1.4126244319000314e+00 -3.5962851300456671e+00 -7.0227321935233500e-01 -3.5962851300456671e+00 3.9729660996733061e+00  9.7906232317570261e+00 -3.1433278789273289e-01 -1.5102295502523491e+00 -3.1433278789273289e-01 -1.0995405284669031e+00 -3.5620221353976298e+00 -1.5102295502523491e+00 -3.5620221353976298e+00 2.8257054908365999e+00  6.9789949886049794e+00 -2.2772323985046525e+00 -1.2843703692604318e+00 -2.2772323985046525e+00 -2.9247731630814315e+00 4.0710520699062544e-02 -1.2843703692604318e+00 4.0710520699062627e-02 7.1706427211306254e+00  7.7224585542949482e+00 2.5350837488080741e-01 -1.4357740564335051e+00 2.5350837488080752e-01 -3.3443883390050719e+00 -9.0464790879141510e-01 -1.4357740564335051e+00 -9.0464790879141510e-01 6.6693417542835158e+00  5.6335665041574607e+00 -4.3151498305439526e+00 -9.6216543316973657e-01 -4.3151498305439526e+00 -1.3932295957873491e+00 7.5343749125870285e-01 -9.6216543316973668e-01 7.5343749125870285e-01 7.1639895331729351e+00  6.3929641084641311e+00 -2.4254609752247163e+00 -8.3288706663596446e-01 -2.4254609752247163e+00 -2.0586353471603784e+00 2.9445267952971830e+00 -8.3288706663596446e-01 2.9445267952971825e+00 6.6936229222043702e+00  2.9617369287423356e+00 -5.2763231423223331e+00 5.6802563791310712e-01 -5.2763231423223331e+00 1.6558697824866895e+00 2.2210981022025083e+00 5.6802563791310712e-01 2.2210981022025083e+00 6.4035448816354554e+00  7.0236030017309199e+00 2.2570043342601513e+00 -1.2149883400225523e+00 2.2570043342601513e+00 -2.9316517025399254e+00 1.2377914530336771e-01 -1.2149883400225521e+00 1.2377914530336774e-01 7.1240135652197036e+00  7.3468460731993046e+00 2.7537906861292156e+00 -7.9093939989545703e-01 2.7537906861292156e+00 -2.3890845169439756e+00 -1.9688769405891922e+00 -7.9093939989545703e-01 -1.9688769405891922e+00 6.3002441027789606e+00  5.9033135515976571e+00 4.2552408846901750e+00 8.6846276334409306e-02 4.2552408846901750e+00 -7.2692131484914158e-01 -2.4952402219991012e+00 8.6846276334409278e-02 -2.4952402219991012e+00 6.0388261176148550e+00  7.5675281144664801e+00 2.7421153346985245e+00 -4.0598436809825839e-01 2.7421153346985245e+00 -1.5261421696393143e+00 -3.1330929950309252e+00 -4.0598436809825861e-01 -3.1330929950309252e+00 5.0245604574877873e+00  7.6575486429498643e+00 3.3640460500927505e+00 5.0820611318731335e-01 3.3640460500927505e+00 -8.5130612345909656e-02 -3.6221836167630816e+00 5.0820611318731335e-01 -3.6221836167630816e+00 3.2239656903699303e+00  5.6162919941066347e+00 -3.7688865347666254e+00 4.5875955268053642e-01 -3.7688865347666249e+00 1.0490558846355749e+00 4.4962907147844815e+00 4.5875955268053642e-01 4.4962907147844815e+00 3.7160792008048324e+00  3.7605395359537233e+00 -4.4235588820131548e+00 1.7057125012179344e+00 -4.4235588820131548e+00 2.8209099245222564e+00 4.1017453087944560e+00 1.7057125012179344e+00 4.1017453087944560e+00 4.1092788096674173e+00  2.1360325913806610e+00 5.3180238824892960e+00 -1.2304236542654305e-02 5.3180238824892951e+00 1.9319075353263910e+00 -1.4933147625822278e+00 -1.2304236542654319e-02 -1.4933147625822278e+00 6.7730361421471370e+00  3.9502850668154896e+00 5.0462913114107817e+00 8.6549905013603753e-02 5.0462913114107817e+00 5.9691778035697618e-01 -2.1208364840530898e+00 8.6549905013603753e-02 -2.1208364840530898e+00 6.4107281373382721e+00  3.6561331606259628e+00 4.9847946404829342e+00 -1.0590699733008277e+00 4.9847946404829342e+00 8.6466316739737981e-02 -6.2987621477338307e-01 -1.0590699733008277e+00 -6.2987621477338307e-01 7.1200030320300804e+00  5.2750195299199758e+00 3.8769259939268137e+00 -1.7652153482853987e+00 3.8769259939268137e+00 -1.4751453862718076e+00 7.3459903449812514e-01 -1.7652153482853987e+00 7.3459903449812514e-01 7.1514648324189070e+00  3.7409481892794441e+00 4.5644764464392180e+00 -2.2391422618019918e+00 4.5644764464392180e+00 1.6566824728971308e-01 1.0637613907902181e+00 -2.2391422618019918e+00 1.0637613907902181e+00 6.6017066933272215e+00  4.4488213465920303e+00 4.8304246134350404e+00 1.0772271188265394e+00 4.8304246134350404e+00 1.2959296286890241e+00 -3.0578204884538205e+00 1.0772271188265394e+00 -3.0578204884538205e+00 5.2008336954021335e+00  5.5752628844359737e+00 4.3616476241721251e+00 1.1649454829211219e+00 4.3616476241721251e+00 1.2038470572280942e+00 -3.4470012525013245e+00 1.1649454829211219e+00 -3.4470012525013245e+00 3.5228334669764245e+00  7.7233590237529430e+00 9.0238698773557813e-01 -5.5108870338875204e-01 9.0238698773557813e-01 1.2720103212462432e+00 4.8594040662633393e+00 -5.5108870338875193e-01 4.8594040662633393e+00 1.0233908236114306e+00  1.3817215789273678e+00 -1.4238201603285481e+00 -4.5581505919857479e+00 -1.4238201603285474e+00 8.7637362493491633e+00 -4.1768660278853936e-01 -4.5581505919857470e+00 -4.1768660278853931e-01 1.0928870554570793e+00  1.0306063085962447e+00 1.7762203695127325e+00 4.8228894258835249e+00 1.7762203695127325e+00 8.5019987986577803e+00 -2.6296222452579388e+00 4.8228894258835249e+00 -2.6296222452579388e+00 2.4664462335688775e+00  6.7070211936815642e+00 4.7998974951701561e+00 2.1346709615532387e+00 4.7998974951701570e+00 1.8324561212621069e+00 -3.3874184157321987e+00 2.1346709615532387e+00 -3.3874184157321987e+00 3.2324779047788974e+00  7.7136094798028987e+00 -3.0075428050254396e+00 -1.8438367179495088e+00 -3.0075428050254396e+00 2.5517770005090337e+00 -4.4729903474862862e+00 -1.8438367179495088e+00 -4.4729903474862862e+00 1.3601353278184163e+00  2.9547968871560060e+00 3.6031114914274585e+00 -3.5731841138303384e+00 3.6031114914274593e+00 6.5865042774078759e+00 3.0185411424056059e+00 -3.5731841138303384e+00 3.0185411424056059e+00 1.6681969692905905e+00  7.5263937554076303e+00 -5.3308967877496927e-01 -4.0280186128780376e-01 -5.3308967877496916e-01 7.5249876368387696e+00 1.4866518677178089e-01 -4.0280186128780388e-01 1.4866518677178089e-01 -3.6262980846286395e+00  4.1149933076332417e+00 -4.5550216702797970e+00 3.8196305858984969e+00 -4.5550216702797970e+00 5.9272380557742945e+00 2.2534356688412571e+00 3.8196305858984960e+00 2.2534356688412567e+00 1.7689406329990027e+00  2.7637287443056633e+00 -5.0551637761470065e+00 3.1726793367788222e+00 -5.0551637761470065e+00 5.9131889333264747e+00 2.4227945629254282e+00 3.1726793367788235e+00 2.4227945629254286e+00 2.9403202926516410e+00  -1.0486368225880833e+00 -1.5212724156369102e+00 4.0290222001269536e+00 -1.5212724156369102e+00 9.3375154533583071e+00 -3.6323004161277145e-01 4.0290222001269536e+00 -3.6323004161277128e-01 3.2932638714397684e+00  -8.2947191342772641e-01 2.1962549686562292e+00 3.7257886640270281e+00 2.1962549686562292e+00 8.8023416003824426e+00 -1.2626765331624417e+00 3.7257886640270272e+00 -1.2626765331624419e+00 3.3468359361421443e+00  1.5735705335751455e+00 5.1687757646784664e+00 2.4101968572024841e+00 5.1687757646784664e+00 5.8467897555730595e+00 -2.8649084399338793e+00 2.4101968572024841e+00 -2.8649084399338784e+00 3.7653578268510617e+00  1.2544159506219090e+00 -2.2182688740956875e+00 5.0226795191107056e+00 -2.2182688740956875e+00 8.8385330361209018e+00 -1.7324250874462360e-01 5.0226795191107056e+00 -1.7324250874462363e-01 1.8488060875059802e+00  9.0991862968036674e-01 2.9067180474022054e+00 -3.8025313709383068e+00 2.9067180474022054e+00 8.0164821001068223e+00 2.0118718713634256e+00 -3.8025313709383068e+00 2.0118718713634256e+00 2.0495452163183834e+00  4.1534779292628503e+00 4.4759143048172527e+00 -2.6539431797358075e+00 4.4759143048172527e+00 4.6418049012231810e+00 3.5239252446606657e+00 -2.6539431797358080e+00 3.5239252446606657e+00 2.1453973284922419e+00  1.3276180940747786e+00 -4.3564438233612339e+00 -3.5389534727023477e+00 -4.3564438233612339e+00 8.1293159646632063e+00 -1.7438082085783388e+00 -3.5389534727023486e+00 -1.7438082085783388e+00 2.3559607196792776e+00  -2.5414010970379042e-01 3.4951889434008515e-01 -4.0989644886885683e+00 3.4951889434008526e-01 9.6338080946364784e+00 2.8008003134458365e-01 -4.0989644886885683e+00 2.8008003134458354e-01 1.8907209798079485e+00  1.4302101745750924e+00 1.9701314167440649e+00 -4.3563732743524275e+00 1.9701314167440649e+00 8.8235346730306805e+00 1.4410673509889163e+00 -4.3563732743524266e+00 1.4410673509889163e+00 1.3457962154853331e+00  7.6334081030651726e+00 -3.6778431151267390e+00 1.9696303350078095e+00 -3.6778431151267390e+00 8.4027323058624293e-01 3.7424801379837191e+00 1.9696303350078095e+00 3.7424801379837183e+00 2.6594498557560184e+00  7.4656344401068200e+00 3.3659318539056997e+00 -1.3882755952002002e+00 3.3659318539056997e+00 1.8134012494702270e+00 4.3698147619778958e+00 -1.3882755952002002e+00 4.3698147619778958e+00 2.0720732337288803e+00  9.2058225495762116e+00 8.7850947502585042e-02 4.8165840143123129e-01 8.7850947502585000e-02 -2.7853771640234032e-01 4.3545790677962124e+00 4.8165840143123140e-01 4.3545790677962124e+00 2.3421648126041394e+00  7.5681916199189070e+00 -2.5571427249700975e+00 2.6544030654027488e+00 -2.5571427249700975e+00 2.7290053799799563e+00 4.1348333415580685e+00 2.6544030654027502e+00 4.1348333415580711e+00 1.0411284280097088e+00  6.1952237747618968e+00 3.4627969678121175e+00 -2.6325437185556733e+00 3.4627969678121175e+00 3.6687668563436731e+00 4.2693278467553499e+00 -2.6325437185556733e+00 4.2693278467553499e+00 1.5258955300123245e+00  1.0314838225827108e+01 -2.2705569981388205e+00 -6.0371197526263043e-01 -2.2705569981388205e+00 -7.6460499809378946e-01 -3.8513849340509223e+00 -6.0371197526263043e-01 -3.8513849340509223e+00 2.9055338990798103e+00  5.2922507617801404e+00 -5.3077212283253425e+00 -2.5545934585328167e+00 -5.3077212283253425e+00 3.5138910462044164e+00 -3.0940884136412428e+00 -2.5545934585328167e+00 -3.0940884136412428e+00 2.6714083982226846e+00  3.8268730205230690e+00 -3.7724343067306934e+00 -3.8099648919122173e+00 -3.7724343067306934e+00 7.1705017115949214e+00 -2.9642088962953936e+00 -3.8099648919122173e+00 -2.9642088962953936e+00 1.0541842729972901e+00  5.4184997410703435e+00 5.6877493989207837e+00 1.4762036009428163e+00 5.6877493989207846e+00 2.7070818907489800e+00 -2.8537726961933862e+00 1.4762036009428163e+00 -2.8537726961933862e+00 2.9841941544335362e+00  9.8628666158125462e+00 2.7921907484078505e+00 1.1344050052783590e+00 2.7921907484078501e+00 -1.0844750505479281e+00 -2.9847090158584413e+00 1.1344050052783590e+00 -2.9847090158584413e+00 2.9550225087257815e+00  9.2159769216090073e+00 1.2112076978990869e+00 1.0379198835067265e+00 1.2112076978990871e+00 2.8721961084292918e-01 -4.5439328295186456e+00 1.0379198835067265e+00 -4.5439328295186456e+00 2.3080322220716787e+00  2.9060214578560162e+00 4.7175811811465174e+00 3.3763292863818437e+00 4.7175811811465174e+00 5.3661344980985080e+00 -3.4397846110961932e+00 3.3763292863818437e+00 -3.4397846110961932e+00 3.4119342482778947e+00  8.5172009599357583e+00 1.3370475237886664e-01 -1.1610062795644831e+00 1.3370475237886664e-01 4.8551906927494439e+00 4.4583234574646227e+00 -1.1610062795644829e+00 4.4583234574646227e+00 -1.4211581761632301e+00  5.3277180658644854e+00 -2.8549509972774828e-01 4.4646506859536448e+00 -2.8549509972774834e-01 8.1733836493864764e+00 -1.4672845391592546e+00 4.4646506859536457e+00 -1.4672845391592546e+00 -1.4178380745439902e+00  5.7791493229902997e+00 -3.3303017486249824e+00 3.2288229136360473e+00 -3.3303017486249824e+00 6.3680363037768615e+00 2.8254948107843538e+00 3.2288229136360469e+00 2.8254948107843538e+00 -9.6084940244810058e-01  5.2017716273600856e+00 2.0881325119142384e+00 -4.2358471453494744e+00 2.0881325119142384e+00 6.2564364041050071e+00 3.0607400667804345e+00 -4.2358471453494744e+00 3.0607400667804345e+00 -1.1530191708624166e-01  7.6174087821318182e+00 -1.8149288234741543e+00 -1.4622725398823990e+00 -1.8149288234741545e+00 5.9295670191042742e+00 -3.9288492417226406e+00 -1.4622725398823990e+00 -3.9288492417226406e+00 -1.7108635466912527e+00  4.6353268315765046e+00 -3.5100779420982325e-01 -4.7182319556625663e+00 -3.5100779420982309e-01 8.1500952767993127e+00 3.5893522876328293e-01 -4.7182319556625663e+00 3.5893522876328288e-01 -1.2486648137255503e+00  6.8192333834600554e+00 2.0607069269466840e+00 3.0400675310061662e+00 2.0607069269466840e+00 4.3202738685245778e+00 -4.8466084515808356e+00 3.0400675310061662e+00 -4.8466084515808356e+00 8.8493989969798270e-01  6.0494296671980763e-01 -2.4914833762084876e-01 3.1492685032783913e-01 -2.4914833762084876e-01 8.4231752309823660e-01 -3.8180410111658514e+00 3.1492685032783913e-01 -3.8180410111658496e+00 2.0827394413473366e+00  8.6736316076880482e-01 -1.7031124313616114e-01 2.0899664450377413e+00 -1.7031124313616114e-01 6.7962604954422812e-01 -3.3521273353835723e+00 2.0899664450377418e+00 -3.3521273353835728e+00 2.1458529176208199e+00  5.9840079526681023e-01 1.6191356068884097e-01 -2.8552634367603122e+00 1.6191356068884116e-01 7.6328192184621957e-01 -2.5568161735759909e+00 -2.8552634367603122e+00 -2.5568161735759909e+00 1.9043920097625102e+00  9.8889137690738749e-01 2.7551837024739939e-01 4.2615997935744749e+00 2.7551837024739939e-01 8.6201718801910310e-01 3.1870846273645215e-01 4.2615997935744749e+00 3.1870846273645215e-01 2.5272353177529223e+00  1.1219162137719494e+00 1.0043995024325598e-01 3.7685349060809599e+00 1.0043995024325598e-01 7.1489018694384765e-01 -1.7353061566689865e+00 3.7685349060809599e+00 -1.7353061566689865e+00 2.4467656278050032e+00  2.0098081330509035e-01 -2.0669937326197085e-01 -1.0403168563225544e+00 -2.0669937326197085e-01 8.4452856021038658e-01 -3.3195029108849639e+00 -1.0403168563225544e+00 -3.3195029108849639e+00 1.8232308200860841e+00  1.2156563300430434e+00 2.2018954431713239e-01 -4.5891687692681931e+00 2.2018954431713234e-01 8.9294957319134449e-01 -1.3962942103352816e+00 -4.5891687692681931e+00 -1.3962942103352816e+00 2.7399425746972228e+00  1.0265542926992179e+00 2.6655072753846315e-01 -3.7647325096193933e+00 2.6655072753846315e-01 1.0338827478201589e+00 -2.3556323941340773e+00 -3.7647325096193933e+00 -2.3556323941340773e+00 1.9413642958626731e+00  9.4358525464923171e-01 1.6298448865287568e-01 -4.2125672633637832e+00 1.6298448865287565e-01 7.2512991622053558e-01 -5.6006109210763289e-01 -4.2125672633637841e+00 -5.6006109210763300e-01 2.2659373347115586e+00  6.5052349885695604e-01 2.3763917791843064e-01 -3.5919782673490528e+00 2.3763917791843062e-01 6.5227329421181868e-01 -1.7593873030218332e+00 -3.5919782673490528e+00 -1.7593873030218332e+00 2.1966288739315143e+00  3.9990369055798741e-01 5.8558402998819044e-02 -2.4580014788960631e+00 5.8558402998819023e-02 6.3518906542292441e-01 -2.6494970441669725e+00 -2.4580014788960631e+00 -2.6494970441669725e+00 1.9111813121796488e+00  1.0563854470569096e+00 1.2794698187376713e-01 -4.3918713232989992e+00 1.2794698187376710e-01 7.2675125255278228e-01 3.7608108871074014e-01 -4.3918713232989992e+00 3.7608108871074014e-01 2.5328786613225729e+00  1.4858384268901734e+00 9.9642704769970614e-02 4.4808126841672049e+00 9.9642704769970614e-02 7.7338700653228476e-01 -1.3246701332518267e+00 4.4808126841672040e+00 -1.3246701332518267e+00 2.6130670066489206e+00  1.5598637301160452e+00 2.1372887988051750e-01 4.8606664478857802e+00 2.1372887988051750e-01 7.0127067339846405e-01 -7.5505813441723146e-01 4.8606664478857793e+00 -7.5505813441723135e-01 2.7530041442866482e+00  8.9581025111912382e-01 2.4406318185239401e-01 3.7226021931520425e+00 2.4406318185239401e-01 8.9326717171986558e-01 2.1077993392534253e+00 3.7226021931520425e+00 2.1077993392534253e+00 2.2495845589441577e+00  6.1143491063214483e-01 1.7865034578631500e-01 3.9122856786529963e+00 1.7865034578631500e-01 8.2016649030942201e-01 1.5758586734205999e+00 3.9122856786529963e+00 1.5758586734205999e+00 2.7203602890375818e+00  6.4304228908172201e-01 2.7403521547429055e-01 3.1893535534422068e+00 2.7403521547429055e-01 9.1470985371508484e-01 2.7295195048913361e+00 3.1893535534422077e+00 2.7295195048913361e+00 2.1980437038820648e+00  2.8508540253637299e-01 3.7631922967506774e-02 3.6144446998241810e+00 3.7631922967506774e-02 8.0555849435716897e-01 1.8423193130762714e+00 3.6144446998241806e+00 1.8423193130762714e+00 2.7954234120183652e+00  9.9776650149656199e-01 -4.7182762705587349e-02 1.5798241639006516e+00 -4.7182762705587349e-02 1.2749640483363918e+00 4.5008976127451525e+00 1.5798241639006516e+00 4.5008976127451525e+00 2.8971374708947657e+00  5.8957072704850289e-01 1.4317292926348446e-02 2.4099144943542479e+00 1.4317292926348446e-02 1.2549369839768698e+00 3.6458876045375299e+00 2.4099144943542479e+00 3.6458876045375299e+00 2.4894842309172449e+00  1.0785694608046070e+00 -2.0949851165902486e-01 -1.2441446480331559e+00 -2.0949851165902486e-01 1.2616896128500910e+00 4.7208637269460088e+00 -1.2441446480331559e+00 4.7208637269460105e+00 3.2199614324117012e+00  9.2121983739433178e-01 -7.7881983115987596e-02 1.5074150448474474e-01 -7.7881983115987527e-02 1.3265196098981498e+00 4.7736050536173744e+00 1.5074150448474474e-01 4.7736050536173744e+00 2.9321201140174793e+00  3.5876185074424027e-01 3.9342405381644080e-01 2.0180568417490843e+00 3.9342405381644080e-01 -2.4430829226348699e-01 -2.0446327328509604e+00 2.0180568417490843e+00 -2.0446327328509604e+00 2.1659643990638786e+00  6.0714001211596935e-01 2.3328481254010817e-02 1.9966880666322779e+00 2.3328481254010817e-02 7.6038024121824685e-02 -2.8680184224581429e+00 1.9966880666322779e+00 -2.8680184224581429e+00 2.3560488940166451e+00  4.6690124244888570e-01 -6.0150430771244566e-02 1.3907166103203468e+00 -6.0150430771244566e-02 1.7755864450179812e-01 -2.9919042063286319e+00 1.3907166103203468e+00 -2.9919042063286319e+00 1.9409306610511232e+00  4.8218408033112203e-01 -1.2660115782636749e-01 7.3831919917138722e-01 -1.2660115782636749e-01 3.2921481588729612e-01 -3.4528571716962606e+00 7.3831919917138722e-01 -3.4528571716962597e+00 2.1099172668402506e+00  6.0512511974522176e-01 -2.5250005238653289e-01 9.8438954620114938e-01 -2.5250005238653289e-01 9.1125054849281983e-01 -3.8487336003103807e+00 9.8438954620114938e-01 -3.8487336003103807e+00 2.0992653559992855e+00  1.0417458062977036e+00 -3.2147107200991304e-01 2.9594102283788577e+00 -3.2147107200991304e-01 8.1633011892787000e-01 -3.3858621198979959e+00 2.9594102283788577e+00 -3.3858621198979950e+00 2.5288205272652475e+00  1.4809072351331951e+00 6.8444301095816965e-02 3.8125214675697556e+00 6.8444301095816965e-02 6.1378868175942880e-01 -2.6271813363687921e+00 3.8125214675697556e+00 -2.6271813363687921e+00 2.6928108825726023e+00  -3.5479046269051469e-02 1.2846960334188276e-01 3.4442522956098962e+00 1.2846960334188276e-01 6.3483688243371594e-01 1.1160702596817627e+00 3.4442522956098962e+00 1.1160702596817627e+00 2.7643333026184793e+00  7.4909421722558056e-01 -2.7148372305054725e-02 4.1193303349821990e+00 -2.7148372305054725e-02 6.3173033920194244e-01 1.2744546939337917e-01 4.1193303349821990e+00 1.2744546939337922e-01 2.3700560863407936e+00  2.2515386597445616e-01 2.2443226830901483e-01 3.7396213950168309e+00 2.2443226830901483e-01 6.8242031076992427e-01 3.4300282820383676e-01 3.7396213950168309e+00 3.4300282820383665e-01 2.4508586310218288e+00  7.9420857086837959e-01 -2.4563985683494291e-01 3.8637462218249458e-01 -2.4563985683494291e-01 1.1999069851609843e+00 -4.5720167370511504e+00 3.8637462218249458e-01 -4.5720167370511504e+00 2.0286620249258354e+00  1.0416671449811348e+00 -3.5887561850720356e-01 1.8137783630373625e+00 -3.5887561850720345e-01 1.0490854250709829e+00 -4.1183826154517629e+00 1.8137783630373614e+00 -4.1183826154517629e+00 2.1676200591694479e+00  5.0385132448439074e-01 1.6093037759847204e-01 3.2157242926232485e+00 1.6093037759847198e-01 1.2729484711463493e-01 -1.7358363118404918e+00 3.2157242926232481e+00 -1.7358363118404918e+00 2.5384409502702248e+00  7.3487881098331620e-01 -1.8962901250604694e-02 3.2775002098192592e+00 -1.8962901250604694e-02 6.5790109791867646e-01 -2.2430889222667130e+00 3.2775002098192592e+00 -2.2430889222667130e+00 2.0692390163308136e+00  4.6777720287760749e-01 1.5905694240183721e-01 3.3912457083595435e+00 1.5905694240183721e-01 2.7830091841084009e-01 -1.2691313657803758e+00 3.3912457083595435e+00 -1.2691313657803760e+00 2.4567266674351802e+00  6.8093346400028720e-01 1.2843024488176313e-01 -2.1487769573093312e+00 1.2843024488176311e-01 1.1954434854675751e+00 -3.8237985998698454e+00 -2.1487769573093312e+00 -3.8237985998698454e+00 1.9220513844575775e+00  7.1569378219134605e-01 7.1308191375429930e-02 -1.0695485373122742e+00 7.1308191375429944e-02 1.1389592238970228e+00 -4.2252798693000813e+00 -1.0695485373122742e+00 -4.2252798693000813e+00 1.9142067829424818e+00  5.6747190664217995e-01 7.9391645853461201e-02 -2.8616945266127147e+00 7.9391645853461215e-02 1.1445427554734096e+00 -3.5454108867097083e+00 -2.8616945266127147e+00 -3.5454108867097083e+00 2.4788865846728241e+00  2.2025772623024131e-01 -1.0755387681652144e-02 -6.4887711130280801e-01 -1.0755387681652134e-02 1.1578844505064161e+00 -3.6750082304704068e+00 -6.4887711130280801e-01 -3.6750082304704068e+00 1.6499247675464717e+00  2.4948767515649628e-01 4.2791521251160293e-02 -1.8995353633482823e+00 4.2791521251160272e-02 8.7990772814214024e-01 -3.0964066302731510e+00 -1.8995353633482823e+00 -3.0964066302731510e+00 1.8866528144726908e+00  1.1168267707238253e-02 3.9228880885264161e-01 3.2658232515587442e+00 3.9228880885264161e-01 2.2977783038649241e-01 -4.8874610959801296e-01 3.2658232515587442e+00 -4.8874610959801307e-01 2.4998139566799513e+00  6.1892848520760946e-01 -3.2939299434054065e-01 1.5182568539250757e-01 -3.2939299434054065e-01 -1.2684337642509680e-01 -2.7450349260209661e+00 1.5182568539250757e-01 -2.7450349260209661e+00 1.4832077246338164e+00  3.2197131920745692e-01 -2.2142466819632178e-01 -6.0925262673778513e-01 -2.2142466819632178e-01 1.2887176432137245e-02 -2.6637721884016266e+00 -6.0925262673778524e-01 -2.6637721884016266e+00 1.5573174354813386e+00  4.0359698808779670e-01 -2.0602958492291913e-02 -1.6371924652255265e+00 -2.0602958492291972e-02 3.4216239704580365e-01 -3.0030240500760494e+00 -1.6371924652255263e+00 -3.0030240500760494e+00 1.9210387459216436e+00  1.2540451782638837e+00 -5.0389256218390195e-02 -4.3682620185792995e+00 -5.0389256218390195e-02 7.8519146462547540e-01 1.6026711106172697e+00 -4.3682620185792995e+00 1.6026711106172697e+00 2.8102235946473342e+00  1.2703453385914976e+00 -4.7476507818711787e-02 -4.0301396639760370e+00 -4.7476507818711870e-02 1.0042375026594605e+00 2.6731509281791772e+00 -4.0301396639760370e+00 2.6731509281791772e+00 3.1818313124160449e+00  1.2176688830707789e+00 -1.3051216462734250e-01 -3.3579151966000551e+00 -1.3051216462734261e-01 1.1255603085741737e+00 3.6319559621869950e+00 -3.3579151966000551e+00 3.6319559621869950e+00 3.2477653327067708e+00  1.1431204003215190e+00 -1.2895664541244425e-01 -2.2895223098368533e+00 -1.2895664541244425e-01 1.3045532399035575e+00 4.3970656841302960e+00 -2.2895223098368533e+00 4.3970656841302960e+00 3.1564498436237081e+00  1.9367625801341792e+00 -2.4183246912490857e+00 -2.2325244570640748e-01 -2.4183246912490857e+00 -1.2243510858013755e+00 -2.2703665679759126e+00 -2.2325244570640754e-01 -2.2703665679759126e+00 3.5189958088040272e+00  1.7524694585243272e-01 -2.6239442547783183e+00 -1.5062426047346082e+00 -2.6239442547783183e+00 1.1299270182687982e+00 -2.8588901047284239e+00 -1.5062426047346082e+00 -2.8588901047284239e+00 4.1520326111767156e+00  7.8227902169541963e-01 -1.0957850822149009e+00 -5.5108544887238387e-01 -1.0957850822149009e+00 -6.5257358672464660e-01 -2.7110486444698316e+00 -5.5108544887238387e-01 -2.7110486444698321e+00 2.3955316565438265e+00  1.0950217831863553e+00 -2.4331158390701471e+00 -1.1967358223429996e+00 -2.4331158390701471e+00 4.7375027306608436e-01 -3.4831432839430199e+00 -1.1967358223429996e+00 -3.4831432839430199e+00 4.3460006153252424e+00  1.3029553889587351e+00 -3.6277297444198625e-01 -2.2299628034218222e-01 -3.6277297444198625e-01 -1.1911671775177746e+00 -2.2330492492032272e+00 -2.2299628034218222e-01 -2.2330492492032272e+00 1.7154102481033759e+00  1.7768017362747246e+00 -1.8595243808005175e+00 -5.1087127433808155e-01 -1.8595243808005175e+00 -2.7018044908764632e-01 -3.9421241498032527e+00 -5.1087127433808155e-01 -3.9421241498032527e+00 4.3760312356218680e+00  3.0101361971657337e+00 -3.0191700050130899e-01 7.5599442339709355e-01 -3.0191700050130899e-01 -2.4491316528590845e+00 -2.2190787279700555e+00 7.5599442339709344e-01 -2.2190787279700555e+00 3.6896273729286788e+00  3.0324230154109215e+00 -1.6705994931419468e+00 3.1006584461855841e-01 -1.6705994931419468e+00 -2.1829510866155863e+00 -2.1764052262608562e+00 3.1006584461855841e-01 -2.1764052262608562e+00 3.8524933935005139e+00  3.2059761425052522e+00 -1.2015507030390420e+00 4.0995220657502057e-01 -1.2015507030390420e+00 -2.7743536515574196e+00 -1.0024114247245137e+00 4.0995220657502057e-01 -1.0024114247245137e+00 3.4440820205026883e+00  3.7322056394679044e+00 1.1361317625240823e+00 1.2503278975326644e+00 1.1361317625240828e+00 -2.4845852524899334e+00 -1.9134849453413578e+00 1.2503278975326644e+00 -1.9134849453413578e+00 4.0881417172096022e+00  2.9205779547523303e+00 2.6231601567562017e+00 1.0704942038294993e+00 2.6231601567562017e+00 -1.8529156958213866e+00 -8.9784595440004811e-01 1.0704942038294993e+00 -8.9784595440004789e-01 3.6263972198882621e+00  3.0818214115738094e+00 2.0976356191517960e+00 1.9641469022658544e+00 2.0976356191517955e+00 -1.5778236683213229e+00 -2.1173727287865574e+00 1.9641469022658551e+00 -2.1173727287865565e+00 4.2117850053834180e+00  1.3653762500134963e+00 -4.2900806474690900e-01 5.0944333911606465e-01 -4.2900806474690900e-01 -1.1318714237201541e+00 -2.7116880592790000e+00 5.0944333911606465e-01 -2.7116880592790000e+00 2.2579343021376279e+00  1.6598470849318783e+00 4.5365720766294781e-01 1.9451516215454083e+00 4.5365720766294787e-01 -6.4246017073523665e-01 -3.2493243244446597e+00 1.9451516215454090e+00 -3.2493243244446597e+00 2.9968119822313857e+00  1.6743107567943840e+00 2.4389510074089640e+00 2.0231739681854579e+00 2.4389510074089640e+00 -7.8936546671839025e-01 -1.6792434056858947e+00 2.0231739681854575e+00 -1.6792434056858947e+00 3.5482784311081712e+00  1.2326696259785210e+00 1.0512721840779788e+00 2.6113407520918841e+00 1.0512721840779788e+00 -2.3622919731250649e-01 -2.4235447075582379e+00 2.6113407520918841e+00 -2.4235447075582379e+00 2.8871788590359491e+00  6.0527856861380247e-01 -3.1064161717744665e+00 -2.3265991145037926e-01 -3.1064161717744665e+00 -1.6553635311826909e-01 -1.4982738492825376e+00 -2.3265991145037929e-01 -1.4982738492825376e+00 3.6837093011472555e+00  3.1292131590398733e+00 -2.6113007864586479e+00 4.7818593845448065e-01 -2.6113007864586479e+00 -2.1002418774069640e+00 -9.5709266101917290e-01 4.7818593845448071e-01 -9.5709266101917290e-01 3.7350984936533300e+00  1.3848285642620388e+00 1.5847055788686106e+00 3.9370620181174170e+00 1.5847055788686106e+00 5.4198838713124620e-01 -1.5661608721603155e+00 3.9370620181174170e+00 -1.5661608721603155e+00 3.3763405063195178e+00  2.9352530646665148e-01 1.2212311172115089e+00 4.0165046464494258e+00 1.2212311172115089e+00 1.1821055705707428e+00 -8.7520274404281040e-01 4.0165046464494258e+00 -8.7520274404281040e-01 3.1855160261788620e+00  -9.9360863669749763e-02 2.7409745194713886e+00 3.0256858901233965e+00 2.7409745194713886e+00 1.7622195134579259e+00 -9.2091167259605888e-01 3.0256858901233965e+00 -9.2091167259605888e-01 4.0498936007621156e+00  -5.8870324383157768e-01 1.6468085177776712e+00 4.0676538088976297e+00 1.6468085177776712e+00 2.5503840705645562e+00 -2.1998844396764630e-01 4.0676538088976297e+00 -2.1998844396764636e-01 4.7853467869905710e+00  1.5960589473541467e-01 3.7706321653294133e+00 1.7572364827016300e+00 3.7706321653294133e+00 1.6342531772332043e+00 -3.8934048102529778e-01 1.7572364827016300e+00 -3.8934048102529778e-01 4.0305878206081225e+00  9.9623603394877824e-01 4.3630751429128400e+00 1.0617915861278280e+00 4.3630751429128400e+00 1.3132861258935105e+00 1.7673019895802761e-01 1.0617915861278280e+00 1.7673019895802763e-01 3.8102705273748554e+00  9.6857757198864580e-01 3.0973383974783824e+00 2.5296792086257871e+00 3.0973383974783824e+00 5.8511547783531737e-01 -1.2938868415463516e+00 2.5296792086257871e+00 -1.2938868415463516e+00 4.0612542010134138e+00  1.6702978231560117e+00 3.6504286197743507e+00 1.5419030600894650e+00 3.6504286197743507e+00 -7.0057994580866798e-02 -7.6924104647090441e-01 1.5419030600894650e+00 -7.6924104647090441e-01 3.8331573647649235e+00  4.9485508394183917e+00 2.1861898427904478e-01 5.0176571538421166e-01 2.1861898427904478e-01 -3.0921697318700327e+00 6.2355468906056666e-01 5.0176571538421166e-01 6.2355468906056666e-01 3.0226845407192262e+00  5.5601353034501413e+00 1.5138851931147330e+00 8.6850832040121750e-01 1.5138851931147326e+00 -2.9732041411637198e+00 2.4931089576002044e-01 8.6850832040121750e-01 2.4931089576002058e-01 3.2900087689668318e+00  5.1689502896322983e+00 2.7671920239142813e+00 7.1814421398475370e-01 2.7671920239142813e+00 -2.2947732219655301e+00 3.8611447436792773e-01 7.1814421398475359e-01 3.8611447436792773e-01 3.2878441164664887e+00  6.1849622924685752e+00 2.4447549124559118e+00 7.8383064775292244e-01 2.4447549124559118e+00 -2.4832392960151850e+00 7.5074049787547115e-01 7.8383064775292244e-01 7.5074049787547115e-01 2.9821808000437082e+00  2.0958552169824221e+00 -3.4675405500003951e+00 4.0325760581527731e-01 -3.4675405500003951e+00 -9.2897796311648406e-01 -9.0314164089642701e-01 4.0325760581527731e-01 -9.0314164089642701e-01 3.6808662460522230e+00  4.0377592068801187e+00 1.4031625943944888e+00 7.7614307943934491e-01 1.4031625943944888e+00 -2.9027534166703308e+00 -5.2680983225899980e-01 7.7614307943934491e-01 -5.2680983225899969e-01 3.5589566334824210e+00  4.0298116108775917e+00 1.1484476323191323e-01 6.2396721396416732e-01 1.1484476323191319e-01 -3.1089393465458786e+00 -8.6359750912139277e-01 6.2396721396416721e-01 -8.6359750912139277e-01 3.4411263228527877e+00  2.7965604225045224e+00 -8.9840459530532091e-01 5.8004241841418758e-01 -8.9840459530532091e-01 -1.3749033314427241e+00 -3.7092271357274171e+00 5.8004241841418758e-01 -3.7092271357274171e+00 4.6928339496926776e+00  1.2483516741152163e+00 1.8172734583272343e-01 9.6078924042837277e-01 1.8172734583272346e-01 -7.3612575830847748e-01 -3.0024128418994538e+00 9.6078924042837277e-01 -3.0024128418994538e+00 2.3168707218597735e+00  -2.1889479820905127e+00 2.6955419013807234e+00 9.5132830280312630e-01 2.6955419013807234e+00 4.0781374664681920e+00 7.0033682878610715e-01 9.5132830280312708e-01 7.0033682878610715e-01 3.9491534447569761e+00  -2.6555877180265894e+00 2.0997139191892784e+00 -3.8979509419916139e-02 2.0997139191892784e+00 4.5434394165688481e+00 1.1318560267992566e+00 -3.8979509419916160e-02 1.1318560267992566e+00 3.7190968375297220e+00  -3.0319203958819285e+00 1.3572071554637237e+00 4.2836631073051706e-01 1.3572071554637237e+00 4.6633189691385413e+00 8.0100015233185018e-01 4.2836631073051706e-01 8.0100015233185007e-01 3.9389331965166479e+00  -7.3398821000297165e-01 -2.7522330789568303e+00 -1.0615009725717932e+00 -2.7522330789568303e+00 1.2271048935709257e+00 -1.7719578555048139e+00 -1.0615009725717932e+00 -1.7719578555048139e+00 3.7300942997387150e+00  5.3252356109405563e-01 -1.6848376745702374e+00 -1.0679217775695118e+00 -1.6848376745702374e+00 -3.7342696572067235e-01 -2.1684051845900800e+00 -1.0679217775695118e+00 -2.1684051845900800e+00 2.4317594628486985e+00  3.0483154288722853e+00 -9.1453597425194114e-02 1.4142784369502908e+00 -9.1453597425194141e-02 -1.5149166585957727e+00 -3.6344291882825641e+00 1.4142784369502908e+00 -3.6344291882825641e+00 4.8854335050947348e+00  -1.2268740043924780e+00 2.0891911305827242e+00 3.0515505816760591e+00 2.0891911305827242e+00 2.8088660654868534e+00 -1.1100725005147821e-01 3.0515505816760591e+00 -1.1100725005147821e-01 4.0238912470624211e+00  -6.4721629996710928e-01 5.7141539820282383e-01 3.4679571384607093e+00 5.7141539820282383e-01 1.4062164499603715e+00 8.2825225502993038e-02 3.4679571384607089e+00 8.2825225502993038e-02 2.8806753896111879e+00  -6.4280940615541127e-01 3.8473657078373198e+00 1.0190491392607344e+00 3.8473657078373198e+00 2.6412774419628939e+00 3.3781783652055486e-01 1.0190491392607341e+00 3.3781783652055491e-01 3.8669742066866291e+00  -1.3354289371325869e+00 2.9546904451907965e+00 1.8388181231206009e+00 2.9546904451907965e+00 2.8393616212781363e+00 -3.9542326500792389e-02 1.8388181231206011e+00 -3.9542326500792369e-02 3.9015556475434643e+00  1.8627907433936841e+00 -3.4762746333337664e+00 7.6347247979889321e-01 -3.4762746333337664e+00 -7.3122474044882713e-01 -6.8090617791007599e-02 7.6347247979889321e-01 -6.8090617791007599e-02 3.3632281007239819e+00  3.1065429880381066e+00 -2.9628893753534706e+00 7.4580958361053351e-01 -2.9628893753534706e+00 -1.8001521770465503e+00 -8.3372553833135812e-02 7.4580958361053362e-01 -8.3372553833135785e-02 3.3633249603189288e+00  -5.9308401252526066e-01 1.2749743097703088e+00 4.1392060636002892e+00 1.2749743097703088e+00 2.5568924895076957e+00 2.0979129504533817e-01 4.1392060636002901e+00 2.0979129504533819e-01 4.2461146624186066e+00  -2.0584848884949700e+00 1.0689669671645885e+00 2.8213101934447109e+00 1.0689669671645885e+00 3.3925116630144339e+00 4.0171696838758814e-01 2.8213101934447109e+00 4.0171696838758814e-01 4.0400185438752096e+00  -1.0246904907539192e+00 4.6669095853605730e-01 3.7992159535683401e+00 4.6669095853605730e-01 2.2941015994566678e+00 9.7507801568336838e-01 3.7992159535683401e+00 9.7507801568336838e-01 3.8142457280900781e+00  4.3867377002101922e+00 -1.5903410545302556e+00 7.5877527079032192e-01 -1.5903410545302561e+00 -2.8897021210851168e+00 -1.9162032464264092e-01 7.5877527079032181e-01 -1.9162032464264100e-01 3.5559662440431898e+00  5.6750271497677574e+00 -1.3192756451655709e+00 9.6204314289360349e-01 -1.3192756451655705e+00 -2.9973994377092605e+00 4.4272149205528449e-01 9.6204314289360349e-01 4.4272149205528449e-01 3.3102344027960795e+00  5.9539777130578617e+00 -1.0589032269112169e+00 1.0262761011606583e+00 -1.0589032269112169e+00 -2.9140100688625887e+00 8.1754376944303120e-01 1.0262761011606583e+00 8.1754376944303120e-01 2.8069892138221628e+00  4.5858157743179095e+00 -2.5128885720159104e+00 1.0776497244011549e+00 -2.5128885720159109e+00 -2.1463532179675218e+00 6.5520844134678224e-01 1.0776497244011549e+00 6.5520844134678224e-01 2.8253837226811829e+00  4.6276682349691693e+00 -2.6378805861406831e+00 1.0477014704005503e+00 -2.6378805861406831e+00 -2.2561601998204512e+00 2.7801314177599784e-01 1.0477014704005505e+00 2.7801314177599784e-01 3.1594410628465703e+00  -1.5313097353124114e+00 3.5028756017631326e+00 5.6885359031536131e-01 3.5028756017631326e+00 3.8841574812733732e+00 8.3967082831712037e-01 5.6885359031536120e-01 8.3967082831712037e-01 3.9020062572792362e+00  4.5194522457306752e+00 3.7338804915608579e+00 5.9263880606842589e-01 3.7338804915608579e+00 -1.3803889442935360e+00 7.2971974250348526e-01 5.9263880606842589e-01 7.2971974250348526e-01 3.2755743008269116e+00  2.7231845774090915e+00 3.9225727428973522e+00 9.4724846217012104e-01 3.9225727428973522e+00 -6.0718501390117186e-01 -1.1407145277137525e-01 9.4724846217012093e-01 -1.1407145277137527e-01 3.5129325325498955e+00  1.9805933663162272e+00 4.3102393000371659e+00 7.9115718446646577e-01 4.3102393000371659e+00 3.5885591977722625e-01 3.9488029573285977e-01 7.9115718446646577e-01 3.9488029573285971e-01 3.5387055917223345e+00  6.5233545106387048e-01 4.6775524264274573e+00 6.1915885851750296e-01 4.6775524264274573e+00 2.3327199988581730e+00 8.4391924274832797e-01 6.1915885851750307e-01 8.4391924274832797e-01 3.6229093664508576e+00  4.3142810712464214e-01 1.3798745092857692e+00 2.6820205445596073e+00 1.3798745092857692e+00 3.4494279538942818e-01 -1.7801368772465531e+00 2.6820205445596073e+00 -1.7801368772465531e+00 2.5314196434600613e+00  1.9601071507444330e+00 1.9604274403994690e+00 3.1492333176521403e+00 1.9604274403994690e+00 -2.7073964466947220e-01 -2.4043545675518589e+00 3.1492333176521403e+00 -2.4043545675518589e+00 4.4106710414415513e+00  4.7474694449688908e+00 8.7720809280257817e-01 6.1373168879133799e-01 8.7720809280257828e-01 -2.8521452038359314e+00 1.2592767091194965e+00 6.1373168879133799e-01 1.2592767091194965e+00 2.8373163419028313e+00  4.8148882216336268e+00 6.6055641441241764e-01 5.8672109290724139e-01 6.6055641441241753e-01 -2.9548532506800109e+00 9.4637253117518072e-01 5.8672109290724139e-01 9.4637253117518072e-01 2.8349166207589165e+00  5.1370617717525455e+00 3.2583850518523687e+00 5.7606941195047345e-01 3.2583850518523687e+00 -1.9018813270739074e+00 1.0100580648111830e+00 5.7606941195047345e-01 1.0100580648111830e+00 3.0869567716763870e+00  -9.3118079597598713e-01 1.2664611426264953e+00 -3.8687329056037028e+00 1.2664611426264953e+00 2.3010267966329589e+00 2.2627972322432111e-01 -3.8687329056037028e+00 2.2627972322432111e-01 4.3131290045955195e+00  -2.7078843802458965e+00 6.2214464566956773e-01 -1.9943038403595210e+00 6.2214464566956784e-01 3.5177759111087719e+00 -7.6854782766116181e-01 -1.9943038403595206e+00 -7.6854782766116181e-01 4.3291004096085262e+00  -1.3250885317980812e+00 5.5044390096157281e-01 -3.7030625623211715e+00 5.5044390096157281e-01 2.6740685664660337e+00 -7.7398262198215706e-01 -3.7030625623211715e+00 -7.7398262198215684e-01 4.0772962381256628e+00  3.3327658960975026e+00 2.5103003603783192e+00 7.4560125916754227e-01 2.5103003603783196e+00 -2.1445375172271177e+00 -5.4410892714804107e-02 7.4560125916754227e-01 -5.4410892714804149e-02 3.3673639808798135e+00  -2.3944942384096337e+00 1.9311161209311796e+00 -1.9648472085165025e+00 1.9311161209311796e+00 3.7294489978131415e+00 -4.8353597153265104e-01 -1.9648472085165025e+00 -4.8353597153265115e-01 4.4877874687340498e+00  -2.4195932312710564e+00 1.9417006928928944e+00 1.7059842141134296e+00 1.9417006928928944e+00 4.1626342755973598e+00 4.7712604651935181e-01 1.7059842141134296e+00 4.7712604651935181e-01 4.0459645016264956e+00  3.1241201203517197e+00 -3.5335436233690030e+00 1.0969228762477492e+00 -3.5335436233690021e+00 -1.0550337645773573e+00 2.8969451371549876e-01 1.0969228762477492e+00 2.8969451371549909e-01 3.0662369415303052e+00  -6.0612042219242768e-01 -1.7790698260831936e+00 -2.6743009048746837e+00 -1.7790698260831936e+00 2.0834339287730024e+00 -2.7643084564017006e+00 -2.6743009048746833e+00 -2.7643084564017006e+00 4.5552389143232572e+00  4.9100908144864368e+00 -1.1017194861323915e-01 6.7742689065156803e-01 -1.1017194861323915e-01 -3.2256637785864428e+00 3.1177762575960936e-02 6.7742689065156803e-01 3.1177762575960926e-02 3.5178434982624078e+00  -2.6480935983732903e+00 -1.7518584997048288e+00 -1.3629059780285215e+00 -1.7518584997048288e+00 4.5412347361006598e+00 8.4148468002530408e-01 -1.3629059780285215e+00 8.4148468002530408e-01 3.4332348057765483e+00  -2.5246970815805057e+00 -2.2174678107502266e+00 -8.3485441825785600e-01 -2.2174678107502266e+00 3.9560305245096528e+00 8.4313379095406926e-01 -8.3485441825785600e-01 8.4313379095406926e-01 3.4189993238991656e+00  -1.4436178604251499e+00 -3.1349821206180204e+00 -1.5695843617911183e+00 -3.1349821206180195e+00 3.2662527686323108e+00 5.3200127730667268e-01 -1.5695843617911183e+00 5.3200127730667268e-01 3.2855863624145285e+00  3.2654054402197699e+00 3.5177788314804426e+00 7.2746765554252191e-01 3.5177788314804426e+00 -1.3230502426021715e+00 3.8509071445994608e-01 7.2746765554252202e-01 3.8509071445994603e-01 3.6412537997171923e+00  5.6735689726648841e+00 -6.9767861439896317e-01 1.0381351036069162e+00 -6.9767861439896295e-01 -2.8363561180196091e+00 1.1299695581650107e+00 1.0381351036069162e+00 1.1299695581650107e+00 2.5604883451234755e+00  -2.7935712444918273e+00 1.2600515175074491e+00 -6.6491763719169727e-01 1.2600515175074491e+00 4.3952807701278083e+00 1.1721442273980618e+00 -6.6491763719169705e-01 1.1721442273980618e+00 3.3332096799529340e+00  -3.0825145212026235e+00 -2.8655519903299132e-03 -9.4609170207565230e-01 -2.8655519903299778e-03 5.2161527189868613e+00 1.3268419634170998e+00 -9.4609170207565230e-01 1.3268419634170998e+00 3.4173030194287422e+00  -1.0893217535186972e+00 3.9009879886943430e+00 2.7342102623556147e-01 3.9009879886943435e+00 3.9306219967877665e+00 1.0727459370841046e+00 2.7342102623556147e-01 1.0727459370841046e+00 3.6387759633386216e+00  2.7695850458815746e-01 1.2892826493987031e+00 3.2320435382009602e+00 1.2892826493987031e+00 7.1761672920090014e-01 -1.4532422929073516e+00 3.2320435382009602e+00 -1.4532422929073512e+00 2.6827700135751971e+00  6.0696092745842301e-01 2.7361644490224282e+00 3.3352331254530774e+00 2.7361644490224282e+00 9.4045568774339949e-01 -1.1379653949895463e+00 3.3352331254530774e+00 -1.1379653949895465e+00 4.9724718102918581e+00  -3.2386039940543307e+00 2.1014357513975429e-02 -4.2382547775831153e-01 2.1014357513975429e-02 4.7641042781628595e+00 1.1247287516688818e+00 -4.2382547775831153e-01 1.1247287516688818e+00 3.6598710688424640e+00  -2.5644097861508648e+00 -4.3832434226031719e-01 2.0884067685389196e+00 -4.3832434226031719e-01 4.0985996205051798e+00 1.1860407149060201e+00 2.0884067685389196e+00 1.1860407149060201e+00 3.8647880080631460e+00  -2.5366556141864600e+00 -1.9121211658661899e+00 6.5284965970766196e-01 -1.9121211658661899e+00 3.3078762193295437e+00 1.1395726921789753e+00 6.5284965970766173e-01 1.1395726921789753e+00 3.9563156297254620e+00  -1.8126707827888540e+00 -1.7233384686041777e+00 2.1554787942001434e+00 -1.7233384686041777e+00 3.4379786523807021e+00 1.6400063323404990e+00 2.1554787942001439e+00 1.6400063323404990e+00 3.8390582048055917e+00  -3.0878454177457435e+00 -9.0364951416414907e-01 6.0531233041488997e-01 -9.0364951416414907e-01 4.0343521313922048e+00 1.0126305242659990e+00 6.0531233041489019e-01 1.0126305242659990e+00 3.9781724714017965e+00  -2.5949431226439210e+00 -2.0972330889260995e+00 -1.7002149928567534e-01 -2.0972330889260995e+00 3.2115878159009315e+00 9.4155315640097870e-01 -1.7002149928567525e-01 9.4155315640097870e-01 3.8099575509920527e+00  -2.8233369249752758e+00 -1.1493146232273377e+00 -1.0567357513794833e-01 -1.1493146232273377e+00 3.2491294370112191e+00 5.7150300296227052e-01 -1.0567357513794839e-01 5.7150300296227052e-01 3.2771931440954845e+00  -2.3803560710512106e+00 -1.5436634851938233e+00 -1.9960497021745445e+00 -1.5436634851938231e+00 4.9861175135020508e+00 1.0697926011650274e+00 -1.9960497021745445e+00 1.0697926011650272e+00 2.9303783949712701e+00  -1.1910197873880728e+00 -2.8784955511599390e+00 -2.1364493589766655e+00 -2.8784955511599390e+00 3.1871611105056004e+00 3.5389976696583997e-01 -2.1364493589766655e+00 3.5389976696584008e-01 2.6753682269210057e+00  1.4289800518006788e+00 -3.0435387474067905e+00 2.3639678057793132e+00 -3.0435387474067905e+00 1.1644075154539268e+00 1.2213943925465520e+00 2.3639678057793132e+00 1.2213943925465520e+00 1.3525345349568441e+00  3.5814709892590035e+00 -2.0475174043360025e+00 1.7456066953714693e+00 -2.0475174043360025e+00 -1.0900086709373886e+00 1.7897991848685129e+00 1.7456066953714695e+00 1.7897991848685129e+00 1.3048010581916680e+00  4.0352517547315010e+00 -1.1861900600258135e+00 1.2542223512846042e+00 -1.1861900600258135e+00 -9.7337273095796384e-01 2.6158794920041308e+00 1.2542223512846045e+00 2.6158794920041308e+00 1.0580854244154574e+00  2.2046413109073604e+00 -2.4508158829513258e+00 2.0119551589950779e+00 -2.4508158829513258e+00 4.0664606782711671e-01 2.0708182628662635e+00 2.0119551589950779e+00 2.0708182628662639e+00 1.0028513499804539e+00  -1.8848698596500810e-01 1.7940692479034028e+00 -3.6638336549088253e+00 1.7940692479034028e+00 1.5018702414422023e+00 1.0018083275604748e+00 -3.6638336549088253e+00 1.0018083275604748e+00 4.0327859243868076e+00  -1.4379838996848777e+00 2.7272961721096323e+00 -2.0696124921226065e+00 2.7272961721096323e+00 2.4567162165023539e+00 6.4373236971520836e-02 -2.0696124921226069e+00 6.4373236971520864e-02 4.6145631529023037e+00  -1.0064769312764981e+00 -1.0984352702032558e+00 -2.1738740453367247e+00 -1.0984352702032558e+00 1.2406204249525077e+00 -1.8164635665845739e+00 -2.1738740453367247e+00 -1.8164635665845739e+00 2.8153359985362143e+00  -2.5006238813420922e+00 -6.9566892924534751e-01 -1.9807022861807340e+00 -6.9566892924534751e-01 3.1192043419110753e+00 -1.1321507991936415e+00 -1.9807022861807340e+00 -1.1321507991936415e+00 4.0339037518637042e+00  -1.3812956576289528e+00 -7.6227096215249690e-01 -3.3196736232129491e+00 -7.6227096215249679e-01 2.9913105751201914e+00 -1.8198201045486742e+00 -3.3196736232129487e+00 -1.8198201045486742e+00 4.4186452304523263e+00  -1.6872001413204623e+00 -2.5564796603401305e+00 -1.4784866632346028e+00 -2.5564796603401305e+00 3.2444371156897289e+00 -1.7476594545104134e+00 -1.4784866632346028e+00 -1.7476594545104134e+00 4.1322865239802224e+00  -3.1177357700492077e+00 1.1211564872566866e+00 -5.8586664852384163e-01 1.1211564872566864e+00 4.2064795081074289e+00 -7.8791379074508927e-01 -5.8586664852384163e-01 -7.8791379074508927e-01 4.2774613806345965e+00  -1.4286935564904590e-01 2.4850113124525395e+00 -2.6447226658476346e+00 2.4850113124525395e+00 1.0005355444888910e+00 1.1465702841384362e+00 -2.6447226658476342e+00 1.1465702841384362e+00 4.1817475074247836e+00  -3.0572482653349971e+00 4.8391864161024711e-01 1.1468720081375205e+00 4.8391864161024711e-01 4.5404784675792804e+00 8.6781364091310720e-01 1.1468720081375205e+00 8.6781364091310720e-01 3.9886870046624070e+00  -3.1579492670107099e+00 7.0121929889693388e-02 2.2574477488932618e-01 7.0121929889693388e-02 4.0236255629336970e+00 8.4152099391685087e-01 2.2574477488932612e-01 8.4152099391685098e-01 3.7580608524422914e+00  4.9720464530338573e+00 -4.9771665644981711e-01 1.0573903038840489e+00 -4.9771665644981739e-01 -2.7311056505646332e+00 1.3484091129834974e+00 1.0573903038840489e+00 1.3484091129834974e+00 2.4140427448662853e+00  4.6555319421707528e+00 9.0191522248496692e-01 6.3883137953464919e-01 9.0191522248496669e-01 -2.6907457451335408e+00 1.6030196309963451e+00 6.3883137953464919e-01 1.6030196309963447e+00 2.4564771190064256e+00  4.1076865038989601e+00 -1.1240269129261429e+00 1.0576009558674648e+00 -1.1240269129261429e+00 -2.2763738613471487e+00 1.7513699634826998e+00 1.0576009558674646e+00 1.7513699634826998e+00 2.1642784715303236e+00  2.9308337837210772e+00 2.6297663291658964e+00 -5.4738241918821551e-01 2.6297663291658964e+00 -2.8867754792182626e-01 2.6469144420670210e+00 -5.4738241918821551e-01 2.6469144420670210e+00 1.5470051993984215e+00  3.9809793924901005e+00 2.5684095336890347e+00 1.0671629364843990e-01 2.5684095336890347e+00 -1.4661189980090488e+00 2.1693425704055245e+00 1.0671629364843992e-01 2.1693425704055245e+00 2.2857149066659304e+00  1.9132371329209161e+00 3.2224125342261409e+00 -7.8363825587838087e-01 3.2224125342261409e+00 3.0130113695534955e-01 2.3348835516163096e+00 -7.8363825587838087e-01 2.3348835516163091e+00 2.1587261215183253e+00  -2.8291237544958894e+00 4.0861095959632249e-01 -1.5536637721680917e+00 4.0861095959632249e-01 5.8423326299854725e+00 1.5610106846560530e+00 -1.5536637721680917e+00 1.5610106846560527e+00 3.2913180451602115e+00  -2.1864090731298402e+00 2.8121175513527588e+00 -2.5470985301911525e-01 2.8121175513527588e+00 5.0623349532280093e+00 1.4320758220288332e+00 -2.5470985301911536e-01 1.4320758220288332e+00 3.5286894781797793e+00  1.5599907493876478e-01 3.9396410467037932e+00 -4.7486244408429346e-01 3.9396410467037932e+00 2.2237316334514912e+00 1.8167266340254553e+00 -4.7486244408429340e-01 1.8167266340254553e+00 3.0757469998070963e+00  -2.9617271934160233e-01 4.1554126789738479e+00 -1.9075922765067718e-01 4.1554126789738479e+00 3.1423277001330052e+00 1.5484759273790685e+00 -1.9075922765067713e-01 1.5484759273790685e+00 3.4040501463766892e+00  1.7402462602779207e+00 4.0669348909511234e+00 -7.9290353345212991e-02 4.0669348909511234e+00 4.6220866779578201e-01 1.4571686736815661e+00 -7.9290353345212963e-02 1.4571686736815661e+00 3.1456229337947952e+00  -1.3855742492195984e+00 -2.9115614820415128e+00 5.5231954056019550e-01 -2.9115614820415128e+00 2.0930213743550756e+00 1.5009361760182007e+00 5.5231954056019583e-01 1.5009361760182007e+00 3.9020202446713701e+00  -1.7148247337966191e+00 -2.7740397975699080e+00 -5.9381446001938246e-03 -2.7740397975699076e+00 2.2022832378295858e+00 1.0743301685900315e+00 -5.9381446001938133e-03 1.0743301685900315e+00 3.6114365272171258e+00  -1.6373053457983109e+00 -2.0870302680600195e+00 -2.4799883740239945e+00 -2.0870302680600195e+00 4.0052691787965529e+00 4.9146307908468062e-01 -2.4799883740239950e+00 4.9146307908468068e-01 2.1233966109277977e+00  1.6023534863838865e-01 -3.4983337219297979e+00 -2.5733102677463688e+00 -3.4983337219297979e+00 2.8310966373961928e+00 -2.2962767934304437e-01 -2.5733102677463688e+00 -2.2962767934304437e-01 1.9874401986120072e+00  -8.3297246837218974e-01 -2.6646882713312485e+00 1.7205327454990929e+00 -2.6646882713312485e+00 2.5540726876423525e+00 2.2267513600314124e+00 1.7205327454990929e+00 2.2267513600314124e+00 3.7899636955495803e+00  -4.8984306541791944e-01 -1.5755825782251140e+00 3.0909047103292124e+00 -1.5755825782251140e+00 2.7574445744038765e+00 2.7345613931971964e+00 3.0909047103292124e+00 2.7345613931971964e+00 3.8553995433798258e+00  -2.4294850952934057e+00 -2.0885407363042141e+00 -4.1807299867047520e-01 -2.0885407363042141e+00 3.0363569534121360e+00 -9.5599713984447576e-01 -4.1807299867047520e-01 -9.5599713984447576e-01 3.7085229402683759e+00  -7.6187154430668935e-01 -3.4567428968038239e+00 -7.3645028845520530e-02 -3.4567428968038239e+00 1.6750088246847741e+00 -9.8942757955693394e-01 -7.3645028845520516e-02 -9.8942757955693383e-01 3.8539029587306293e+00  1.4690021510473481e+00 1.7465004079962378e+00 -3.8372175992695667e+00 1.7465004079962378e+00 6.8755148693134838e-01 2.2938099774022946e+00 -3.8372175992695667e+00 2.2938099774022946e+00 4.3070841123370291e+00  -1.0687064778985664e+00 -2.4966160662136327e+00 -2.2833710208184117e+00 -2.4966160662136327e+00 2.9169067435061327e+00 9.6008655011646377e-02 -2.2833710208184117e+00 9.6008655011646390e-02 2.1442973098465394e+00  -1.2606867165667701e+00 1.4416595939867860e+00 -2.4504845061371339e+00 1.4416595939867860e+00 4.9092050739976809e+00 1.6260405970480680e+00 -2.4504845061371339e+00 1.6260405970480680e+00 1.3906848245481360e+00  -1.8964807463474294e+00 3.1106792168797670e-01 -2.2738923692392516e+00 3.1106792168797648e-01 4.3950496289380663e+00 1.3902279058348515e+00 -2.2738923692392516e+00 1.3902279058348515e+00 1.5183261004315203e+00  -1.3105768298887035e+00 2.2362572024450329e+00 -1.8706597947515535e+00 2.2362572024450329e+00 4.1129606743595613e+00 1.9247695747810083e+00 -1.8706597947515535e+00 1.9247695747810083e+00 1.9577389728469323e+00  2.5860903200140450e+00 4.0016285474878117e+00 2.3816749846021348e-01 4.0016285474878117e+00 -3.0836812029996552e-01 1.1537204820850384e+00 2.3816749846021365e-01 1.1537204820850384e+00 3.2531337379220866e+00  1.1067851420648602e+00 4.6681913101009682e+00 2.7536845390967768e-01 4.6681913101009700e+00 1.8810160995847545e+00 1.1728458658213687e+00 2.7536845390967768e-01 1.1728458658213687e+00 3.4663669738630021e+00  -1.0536604873611175e+00 2.7996586627944260e+00 -1.2525575422158379e+00 2.7996586627944260e+00 3.1672509433581699e+00 2.0321198020785136e+00 -1.2525575422158379e+00 2.0321198020785136e+00 2.5440335330445945e+00  -2.0111790004919454e+00 1.5019095781790890e+00 -1.9081476593888225e+00 1.5019095781790892e+00 4.6079625772704391e+00 1.6673983737291476e+00 -1.9081476593888225e+00 1.6673983737291476e+00 2.3929553446462331e+00  -1.6675485937274317e+00 -1.5363643559965243e+00 2.7140060046647001e+00 -1.5363643559965241e+00 5.6251870262118153e+00 -6.2455283134397832e-01 2.7140060046646997e+00 -6.2455283134397832e-01 2.0006589625994313e+00  -9.8620111109856212e-01 -2.4536765690381213e+00 2.5976340204663857e+00 -2.4536765690381213e+00 3.9209013027852966e+00 -4.6738230022757551e-02 2.5976340204663853e+00 -4.6738230022757565e-02 1.7905216010613478e+00  -7.3766519927564300e-01 -3.0431308691843455e+00 2.4384240983086038e+00 -3.0431308691843455e+00 4.1323338157947429e+00 1.9385492805245408e-01 2.4384240983086038e+00 1.9385492805245416e-01 1.9633938913024267e+00  -2.1511302109748254e+00 -5.3490414538262143e-01 -2.3530184545581592e+00 -5.3490414538262154e-01 4.5426598652523804e+00 1.0226221605806409e+00 -2.3530184545581587e+00 1.0226221605806409e+00 1.9598683962533185e+00  -2.5089154151084854e+00 1.4632601986846521e+00 -1.4295830037872586e+00 1.4632601986846532e+00 5.9382280525130806e+00 1.8051970750056683e+00 -1.4295830037872586e+00 1.8051970750056683e+00 3.1635107928006008e+00  2.6132343175801237e-01 -3.6451130009025543e+00 -2.2263518419750388e+00 -3.6451130009025543e+00 1.9134642907043478e+00 -1.1887395355385953e-01 -2.2263518419750388e+00 -1.1887395355385959e-01 2.7484661715366978e+00  2.8483932774887797e+00 -3.0401768899572437e+00 1.8177367415369288e+00 -3.0401768899572432e+00 -4.7050505008687810e-01 1.4458735374959975e+00 1.8177367415369288e+00 1.4458735374959975e+00 1.9292851327633211e+00  8.6742424481318992e-01 -3.7018106151582186e+00 2.4746370539603428e+00 -3.7018106151582186e+00 2.3162919440877001e+00 6.3598373421603671e-01 2.4746370539603428e+00 6.3598373421603671e-01 1.9511511204669214e+00  2.7047630370632292e+00 -3.6696140640873480e+00 1.8423504119190377e+00 -3.6696140640873480e+00 1.0483076761426467e-01 1.1264650761320614e+00 1.8423504119190377e+00 1.1264650761320614e+00 2.1377609360104790e+00  2.1943598324681548e+00 4.2061715280740719e+00 4.2661844830240725e-01 4.2061715280740710e+00 7.6785908944262030e-02 7.7562168537916698e-01 4.2661844830240725e-01 7.7562168537916698e-01 3.3953188713966003e+00  7.1706683148810746e-01 -3.7794070085191795e+00 6.7595266764464312e-01 -3.7794070085191795e+00 4.3652316669512481e-01 -4.9180737033289967e-01 6.7595266764464312e-01 -4.9180737033289973e-01 3.5452327861545068e+00  -7.1227352501812835e-01 -3.5519802776017428e+00 6.8995375682503601e-01 -3.5519802776017424e+00 1.8931843458843847e+00 -4.9772096796216814e-01 6.8995375682503612e-01 -4.9772096796216814e-01 3.3101668913209394e+00  5.8792631789287721e+00 -2.1562831335704522e+00 1.1429804280036739e+00 -2.1562831335704522e+00 -2.3925794812937591e+00 8.8298710163689642e-01 1.1429804280036739e+00 8.8298710163689631e-01 2.6055113570744322e+00  1.8136334607089593e+00 1.6100798450139000e+00 -3.0414240845697464e+00 1.6100798450139000e+00 -6.4947421388964069e-03 2.8379538393253365e+00 -3.0414240845697464e+00 2.8379538393253365e+00 4.1628570099043163e+00  2.0544301891917529e+00 2.9445844619439443e+00 -2.0891835841519555e+00 2.9445844619439443e+00 -7.7904232246157079e-01 1.4225446070677874e+00 -2.0891835841519555e+00 1.4225446070677874e+00 4.8129853187984928e+00  2.5960050357444708e+00 2.0967193331008351e+00 -1.6376829160204420e+00 2.0967193331008351e+00 -1.9165548580993799e+00 1.5067838792324177e+00 -1.6376829160204420e+00 1.5067838792324177e+00 4.5363572654760196e+00  2.4875831209790333e+00 1.3264712857827625e+00 -2.3732039385979378e+00 1.3264712857827625e+00 -8.0094787150508506e-01 3.1147168464680739e+00 -2.3732039385979378e+00 3.1147168464680739e+00 4.1909606276209166e+00  5.8131376701897657e-02 3.1819602389507313e+00 -1.1767088624801725e+00 3.1819602389507318e+00 1.9871682662968526e+00 1.9582740231766609e+00 -1.1767088624801725e+00 1.9582740231766609e+00 2.1788492651963427e+00  1.0925385911490759e+00 3.6812517487533714e+00 -1.3737125393502720e+00 3.6812517487533714e+00 -9.5646209041047592e-02 8.5534196670198168e-02 -1.3737125393502720e+00 8.5534196670198168e-02 4.8980998996045013e+00  8.3709792551851192e-01 2.9383621504018680e+00 -2.4015229120491313e+00 2.9383621504018680e+00 1.4663730374588074e-01 1.1490907746325578e+00 -2.4015229120491313e+00 1.1490907746325578e+00 4.6822423882168689e+00  -5.3905883831090529e-01 3.3681243381459391e+00 -1.5848140926886161e+00 3.3681243381459391e+00 1.3309564896001147e+00 9.5298857851340346e-02 -1.5848140926886161e+00 9.5298857851340346e-02 4.7496906887804800e+00  4.1448789907113319e+00 -3.0026190204269327e+00 1.3799620299029618e+00 -3.0026190204269314e+00 -1.4419367431116183e+00 1.0656330074078402e+00 1.3799620299029614e+00 1.0656330074078402e+00 2.5701986458610304e+00  3.5977398726793579e+00 -4.4888002126774209e+00 1.5858517284833109e+00 -4.4888002126774209e+00 3.6728146157348823e-01 9.1430315474242874e-01 1.5858517284833109e+00 9.1430315474242874e-01 2.6244489310410950e+00  -2.0011126509535102e+00 -2.4513973495930630e+00 5.8468961977470779e-01 -2.4513973495930630e+00 2.6444551916465602e+00 -4.7021154508332058e-01 5.8468961977470779e-01 -4.7021154508332080e-01 3.1896166810266000e+00  -2.9253612239230633e+00 -1.3678449076396666e+00 4.9030516723738837e-01 -1.3678449076396666e+00 3.7367576732657017e+00 -6.8372246761378630e-01 4.9030516723738826e-01 -6.8372246761378630e-01 3.6124147386274044e+00  -3.2225317917965639e+00 1.4060700802479656e-01 4.3657445976922987e-01 1.4060700802479650e-01 4.4129042948110557e+00 -8.5736138879070700e-01 4.3657445976922998e-01 -8.5736138879070700e-01 3.7945730145395831e+00  -3.1453458800246530e+00 -5.9875935547691428e-01 -5.4802798957186361e-01 -5.9875935547691428e-01 3.8845895878167203e+00 -8.7910709375504070e-01 -5.4802798957186361e-01 -8.7910709375504070e-01 3.9512647011468007e+00  3.9914926071611752e+00 -4.1971639392322335e-01 1.0101456204962014e+00 -4.1971639392322324e-01 -1.7824242466832148e+00 2.4406154120025505e+00 1.0101456204962014e+00 2.4406154120025501e+00 1.7063641037089523e+00  4.9896591010882991e+00 -1.9249587846628327e+00 1.1345002360493130e+00 -1.9249587846628331e+00 -2.3526267075844562e+00 1.1844607390687616e+00 1.1345002360493128e+00 1.1844607390687616e+00 2.5804953194241556e+00  2.2962576963558230e+00 2.5324541350162058e+00 1.6981794432389616e+00 2.5324541350162058e+00 1.6313911480575454e+00 -2.4923613347084439e+00 1.6981794432389616e+00 -2.4923613347084439e+00 3.4024373097394134e-01  1.9005335405711248e+00 3.2938644998888083e+00 2.0421770144330620e+00 3.2938644998888083e+00 2.4746954608482548e+00 -2.2651109385805781e+00 2.0421770144330624e+00 -2.2651109385805781e+00 1.1269834864126209e+00  4.0865747368750949e+00 3.3581148683458726e+00 1.0347823492764969e+00 3.3581148683458730e+00 9.0085897836960160e-01 -3.0556646576907789e+00 1.0347823492764969e+00 -3.0556646576907789e+00 1.3659332010050078e+00  4.5371416471785162e+00 2.1653910446256841e+00 6.2179803307736925e-01 2.1653910446256841e+00 -2.3444786954949306e+00 1.3629541693154108e+00 6.2179803307736936e-01 1.3629541693154108e+00 2.9416191785741228e+00  -1.1173704818459689e+00 -3.5843667544035235e-01 3.6831675464026890e+00 -3.5843667544035235e-01 2.7209540632428748e+00 1.8015482347890166e+00 3.6831675464026867e+00 1.8015482347890166e+00 3.9994012548891127e+00  5.6784623644114527e+00 1.9378889707738536e+00 6.1992307717724160e-01 1.9378889707738540e+00 -5.3039033036297734e-01 -3.1384329914179134e+00 6.1992307717724160e-01 -3.1384329914179130e+00 1.1804859669433958e+00  1.4292974622394183e+00 -4.3403600289016646e+00 2.0343154021568410e+00 -4.3403600289016646e+00 2.1180647666717669e+00 6.7411189726119769e-01 2.0343154021568410e+00 6.7411189726119769e-01 2.4985405916096535e+00  4.5536339354759843e+00 5.4444354266224393e-01 7.4070368323877833e-01 5.4444354266224393e-01 -2.3712586299073091e+00 2.0475609427599872e+00 7.4070368323877833e-01 2.0475609427599872e+00 2.0378589660463788e+00  2.2609626688306959e+00 -3.8580034394411244e+00 -2.3747236843839592e+00 -3.8580034394411253e+00 8.5473573205381115e-01 -8.9927299627411250e-01 -2.3747236843839592e+00 -8.9927299627411250e-01 2.3766408507286667e+00  2.0322705209200693e+00 -3.8535963679816909e+00 -2.2274052214107773e+00 -3.8535963679816909e+00 5.1875063945242239e-01 -6.9522161966509055e-01 -2.2274052214107773e+00 -6.9522161966509055e-01 2.9335023675994321e+00  4.0644470848360870e+00 -3.2909446640491602e+00 -2.2216473500918856e+00 -3.2909446640491602e+00 -6.5703990695180325e-01 -1.5536183452668888e+00 -2.2216473500918856e+00 -1.5536183452668888e+00 2.7815980821018749e+00  4.6389431705548523e-01 -3.6290169454258248e+00 -2.4842479534364443e+00 -3.6290169454258248e+00 2.3042327610646023e+00 -2.9395088251941476e-01 -2.4842479534364443e+00 -2.9395088251941476e-01 2.2258927618568518e+00  7.1072433476390318e-01 3.1248145393482059e+00 -1.5921709610464649e+00 3.1248145393482059e+00 2.4813113016476618e+00 2.4099498721366985e+00 -1.5921709610464649e+00 2.4099498721366985e+00 1.5542577033344833e+00  5.0626411030429619e-01 -2.2346682409369922e+00 2.1755309255635549e+00 -2.2346682409369922e+00 1.4598578702123568e+00 3.2152204850550912e+00 2.1755309255635549e+00 3.2152204850550912e+00 3.8350038183240129e+00  -1.2412322136954110e+00 -1.1841094814566517e+00 -2.8073439834068896e+00 -1.1841094814566517e+00 4.6971257356075338e+00 4.3505866982749358e-01 -2.8073439834068896e+00 4.3505866982749358e-01 1.0637391931047711e+00  -1.6540253518529149e+00 -1.3809473845268079e+00 -2.3558041785136741e+00 -1.3809473845268079e+00 4.4216079635322565e+00 7.4082956502446229e-01 -2.3558041785136741e+00 7.4082956502446229e-01 1.2593819108052351e+00  2.0942169655068277e+00 -3.0462385033001915e+00 7.9249776967040830e-01 -3.0462385033001924e+00 -4.6013284247343102e-03 2.9465796953907506e+00 7.9249776967040819e-01 2.9465796953907502e+00 4.0585274046874513e+00  2.2091669859873200e+00 -2.0827155830015869e+00 1.1981978017043438e+00 -2.0827155830015869e+00 8.4414948482067143e-01 4.2404961254045128e+00 1.1981978017043438e+00 4.2404961254045128e+00 3.4501156790473924e+00  6.2474395332527899e-01 -3.2955423517090838e+00 1.0067864821806585e+00 -3.2955423517090838e+00 9.4926513518292255e-01 2.3792808176440863e+00 1.0067864821806585e+00 2.3792808176440863e+00 3.9957802481808584e+00  -1.5540468137685457e+00 2.9673745127312876e+00 -9.9846312535553972e-01 2.9673745127312876e+00 4.1783934876471376e+00 1.8448188481586514e+00 -9.9846312535553972e-01 1.8448188481586514e+00 3.1261935471046369e+00  4.2237879348088629e+00 -1.0125994318452030e+00 -8.6793432577727958e-01 -1.0125994318452030e+00 -5.2515499588477721e-01 -2.8148516315341632e+00 -8.6793432577727958e-01 -2.8148516315341632e+00 1.8782934495827322e-01  3.4367113946242753e+00 -2.4792595285339405e+00 -1.6209191854048235e+00 -2.4792595285339405e+00 7.7936099292300232e-01 -2.3971012166188603e+00 -1.6209191854048226e+00 -2.3971012166188603e+00 1.5914303411677094e-01  2.5789049610763066e+00 -3.2151925935973149e+00 -2.2213395662891098e+00 -3.2151925935973140e+00 1.2598523792153540e+00 -1.9866369811174553e+00 -2.2213395662891098e+00 -1.9866369811174553e+00 1.1808364712180706e+00  4.7668845781066205e+00 -2.0836566055388106e+00 -1.6152025545465203e+00 -2.0836566055388110e+00 -5.9152572719958352e-01 -2.5394925367974137e+00 -1.6152025545465203e+00 -2.5394925367974137e+00 9.5565207779325612e-01  2.1584840470849516e+00 3.9284550363864761e+00 -1.3223007986081212e-01 3.9284550363864761e+00 3.9412002703531351e-01 2.0321349750250430e+00 -1.3223007986081212e-01 2.0321349750250430e+00 2.7072799664521003e+00  -1.9186622602101744e+00 3.0563019909827003e+00 -7.0695904201213211e-01 3.0563019909827003e+00 3.2729785515491079e+00 -6.8967692007705361e-01 -7.0695904201213211e-01 -6.8967692007705361e-01 4.6421680071922884e+00  -7.4565672217089973e-01 -2.8510739906791032e+00 -3.9797281019831243e-01 -2.8510739906791023e+00 6.9822624806889322e-01 6.4281415879213666e-01 -3.9797281019831227e-01 6.4281415879213666e-01 2.9181655496734242e+00  -3.9386327833671292e-01 -3.2191712505476784e+00 -1.1416507297494682e+00 -3.2191712505476788e+00 9.4681202943951137e-01 3.3325061296731617e-01 -1.1416507297494682e+00 3.3325061296731617e-01 2.8139853308746945e+00  8.4365147305312238e-01 -3.0931462493530693e+00 -7.1676370638427456e-01 -3.0931462493530693e+00 -4.2820746717160363e-01 9.4114318328094332e-02 -7.1676370638427456e-01 9.4114318328094332e-02 3.0490878358017555e+00  -4.6239037745514838e-01 4.2952668616598793e+00 1.6662294235289113e-01 4.2952668616598793e+00 3.6154721722422347e+00 1.2414453324676373e+00 1.6662294235289113e-01 1.2414453324676373e+00 3.5265536310610925e+00  3.3427571400138585e+00 -2.9769822114491635e+00 -1.8858591200526003e+00 -2.9769822114491635e+00 -1.1231413089412581e+00 -1.2712444101672096e+00 -1.8858591200526003e+00 -1.2712444101672096e+00 3.0126668245850095e+00  -4.1791953624782899e-02 -3.2365112353711218e+00 -1.5648664268764645e+00 -3.2365112353711210e+00 1.1038468074593841e+00 -2.7552003732204228e-01 -1.5648664268764645e+00 -2.7552003732204228e-01 2.6966765855945227e+00  1.5991442005157208e+00 -3.7256304531061959e+00 -1.6707470677440091e+00 -3.7256304531061959e+00 2.3993705471959025e-02 -4.0156135148765132e-01 -1.6707470677440091e+00 -4.0156135148765132e-01 3.1543434600709608e+00  2.7814784582831981e-01 -3.4309140803310632e+00 -2.5898194408494777e+00 -3.4309140803310632e+00 2.9243036678772949e+00 -3.0264158100489696e-01 -2.5898194408494777e+00 -3.0264158100489696e-01 1.5658369786571014e+00  2.8225535054984952e+00 -3.1422579937869388e+00 -1.4278596487549098e+00 -3.1422579937869388e+00 -1.4082902695378345e+00 -4.1481253726278727e-01 -1.4278596487549098e+00 -4.1481253726278727e-01 3.5123090205946315e+00  3.8514205991596051e+00 3.5669719737931636e+00 4.1861380727165187e-01 3.5669719737931636e+00 -1.1576418994540074e+00 1.4482035656766896e+00 4.1861380727165187e-01 1.4482035656766898e+00 2.9565492110421934e+00  6.8704456128552527e-01 -3.0223500598542046e+00 -4.2386957952735105e-01 -3.0223500598542046e+00 -6.6381401893850833e-01 8.0731668680809221e-01 -4.2386957952735110e-01 8.0731668680809221e-01 3.0766322093909810e+00  -1.9631604032600971e+00 2.9623915937054495e+00 -6.2498896928098202e-01 2.9623915937054495e+00 5.0078057122444459e+00 1.5820423864786861e+00 -6.2498896928098202e-01 1.5820423864786861e+00 3.4944001524187924e+00  4.8000791119096977e+00 1.8540285959034584e+00 9.2970351524209016e-01 1.8540285959034577e+00 1.5836250578615185e-01 -2.8501907321252333e+00 9.2970351524209016e-01 -2.8501907321252338e+00 5.9882059865015045e-03  -1.5396654202881406e+00 -2.9577177840148807e+00 -8.0590528136963391e-01 -2.9577177840148807e+00 2.3235911254788348e+00 7.1404133626763056e-01 -8.0590528136963391e-01 7.1404133626763056e-01 3.3727018399191810e+00  1.4744458960215070e+00 -4.1291487558151383e+00 1.1274678121441744e+00 -4.1291487558151383e+00 5.1076976951385178e-01 -1.4438127122371680e-01 1.1274678121441746e+00 -1.4438127122371680e-01 3.2976706734104990e+00  4.9342831158501967e+00 5.2502549812067623e-01 -1.2487625187373248e-02 5.2502549812067623e-01 -6.5973928133042137e-01 -2.7842366155014742e+00 -1.2487625187373216e-02 -2.7842366155014742e+00 4.5864337322269418e-02  4.8383075133391715e+00 -3.2682596094761394e+00 -2.0657621065967162e+00 -3.2682596094761394e+00 9.8094952272007929e-02 -2.0458158401964499e+00 -2.0657621065967162e+00 -2.0458158401964499e+00 1.2403491349383355e+00  4.0775785572051557e+00 -2.4430063167154112e+00 1.3688841807770471e+00 -2.4430063167154135e+00 -1.7578529329276973e+00 1.3352212087445974e+00 1.3688841807770469e+00 1.3352212087445976e+00 2.3678324542526714e+00  -4.9435446701191316e-01 -2.8051069329937537e+00 -2.5536763580713275e+00 -2.8051069329937537e+00 3.7715422086353798e+00 6.7683455040630253e-02 -2.5536763580713275e+00 6.7683455040630280e-02 1.2574095899940836e+00  3.1857692876621262e+00 2.2840676241910329e+00 -1.2972146624405814e+00 2.2840676241910329e+00 -2.3939820491404848e+00 5.9286243429956054e-01 -1.2972146624405811e+00 5.9286243429956054e-01 4.8982840943751356e+00  2.5123234509578944e+00 3.4062719419038485e+00 -1.0618175707383182e+00 3.4062719419038485e+00 -1.3603132802203417e+00 -1.4869065891313710e-01 -1.0618175707383182e+00 -1.4869065891313710e-01 4.9130867707023791e+00  3.8714899861190752e+00 1.2431550163370308e+00 4.2925033997834532e-02 1.2431550163370308e+00 -1.6777633398529113e+00 2.4522530530750593e+00 4.2925033997834552e-02 2.4522530530750593e+00 1.6416422375412021e+00  -9.8643495691168226e-01 -1.9660840312636891e+00 2.7900915004529585e+00 -1.9660840312636889e+00 4.2454058622977131e+00 -7.2893870146770415e-02 2.7900915004529585e+00 -7.2893870146770331e-02 1.4608023835016808e+00  1.4426477643507743e-01 -2.9969361454289514e+00 2.8574232203850642e+00 -2.9969361454289514e+00 2.8976068795845533e+00 3.4145929987876911e-01 2.8574232203850642e+00 3.4145929987876911e-01 1.7017768751110225e+00  -2.5585484318194390e-01 -3.6258100767733459e+00 9.0898266481195267e-01 -3.6258100767733463e+00 1.4915187499583777e+00 -3.1286532385229460e-01 9.0898266481195267e-01 -3.1286532385229460e-01 3.1693175372482654e+00  5.3216335771743601e+00 -5.7255024648091235e-01 -1.1654649227738636e+00 -5.7255024648091213e-01 -2.6022420748920432e+00 -1.9999010316124444e+00 -1.1654649227738636e+00 -1.9999010316124444e+00 3.3619182150591889e+00  5.1112733600607605e+00 -8.6498349504734418e-01 -1.1794537497736863e+00 -8.6498349504734418e-01 -3.0488539044641065e+00 -9.6719965352188408e-01 -1.1794537497736863e+00 -9.6719965352188386e-01 4.1140718887927408e+00  3.9213574927143102e+00 -2.2989321178980142e+00 -1.1086840126701267e+00 -2.2989321178980142e+00 -2.5269213163310345e+00 -1.1030729781285513e-01 -1.1086840126701267e+00 -1.1030729781285516e-01 4.2599476649353605e+00  4.5395209608916129e+00 -2.0943940154092426e+00 -1.5577285725482111e+00 -2.0943940154092426e+00 -2.2767475753530646e+00 -1.2731398303468173e+00 -1.5577285725482111e+00 -1.2731398303468173e+00 3.4138614914195187e+00  2.4276011416309067e+00 -1.2963371930262058e-01 2.1947303901232562e-01 -1.2963371930262055e-01 2.2004250426511174e+00 1.7885116833579540e+00 2.1947303901232570e-01 1.7885116833579540e+00 -2.4978432543293856e+00  2.6889711879207456e+00 1.8390229383401188e-01 7.0801219966926385e-02 1.8390229383401188e-01 3.4058342227061689e-01 2.6236683831491776e+00 7.0801219966926385e-02 2.6236683831491776e+00 -8.2265275956216111e-01  2.3443871056040866e+00 -3.1050935490073455e+00 -9.3341217242892849e-01 -3.1050935490073455e+00 -1.5215157614046082e+00 5.5498327843982920e-01 -9.3341217242892849e-01 5.5498327843982920e-01 3.7156905502656445e+00  2.3126840329995995e+00 6.8437122404096828e-01 2.0145870823305514e+00 6.8437122404096840e-01 2.2760631544782832e+00 -1.7438140031675078e+00 2.0145870823305514e+00 -1.7438140031675078e+00 -1.7084282361586498e+00  2.7952093409527943e+00 1.6519581311910432e+00 1.6888288334506083e+00 1.6519581311910436e+00 1.5600099200166300e+00 -2.6744876773773738e+00 1.6888288334506083e+00 -2.6744876773773738e+00 -5.2749290428499773e-01  4.1613476430220970e+00 -1.1495836109388626e+00 -1.0112874155201150e+00 -1.1495836109388626e+00 -3.1286113434742933e+00 3.3948453809617862e-01 -1.0112874155201150e+00 3.3948453809617857e-01 4.2880779839163834e+00  -5.5743203218494386e-01 -3.0543364842762104e+00 -1.4115784101220935e-01 -3.0543364842762104e+00 6.5014412120937859e-01 1.0586289472596770e+00 -1.4115784101220941e-01 1.0586289472596770e+00 3.5689899879524343e+00  1.9844970581324983e+00 -2.7610671214765774e+00 -3.7378452588892264e-01 -2.7610671214765774e+00 -1.6563801179048203e+00 1.0631834191019878e+00 -3.7378452588892264e-01 1.0631834191019878e+00 3.7649011119513749e+00  6.6563970073255185e-01 -2.9665154336628721e+00 1.0957475180789768e-01 -2.9665154336628721e+00 -4.5354139726905146e-01 1.0775442046153274e+00 1.0957475180789768e-01 1.0775442046153274e+00 3.5460730286364428e+00  1.0834492630616661e+00 4.2244382947309420e+00 -5.2769662256402661e-01 4.2244382947309420e+00 6.8983427294300137e-01 -8.5333107917228601e-01 -5.2769662256402661e-01 -8.5333107917228601e-01 4.8465877791742340e+00  -2.7853321812936727e-01 3.9533770474597358e+00 -7.4546513738605824e-01 3.9533770474597358e+00 1.7961190750940770e+00 -6.1436554775631513e-01 -7.4546513738605824e-01 -6.1436554775631513e-01 4.7815853285961669e+00  -7.0433245395244448e-01 -3.6183829766737809e+00 2.1861333574103532e+00 -3.6183829766737809e+00 4.5685545051520586e+00 1.6341621685459484e-01 2.1861333574103532e+00 1.6341621685459487e-01 2.5647953119317726e+00  1.5890051805845524e+00 -3.2816671830766668e+00 -1.2743472054491206e-01 -3.2816671830766668e+00 -6.5424964051426793e-01 1.8771421308790546e+00 -1.2743472054491198e-01 1.8771421308790546e+00 4.1183249860411495e+00  -2.8540601344710694e+00 1.8219855970773846e+00 1.8799172799181874e-01 1.8219855970773846e+00 4.4548176017568233e+00 -1.0450758009803369e+00 1.8799172799181874e-01 -1.0450758009803369e+00 4.0911906754699841e+00  2.2328609664278640e+00 -4.3926754760049400e+00 1.5184622202963050e+00 -4.3926754760049400e+00 6.8624862320863500e-01 3.8456444179546473e-01 1.5184622202963050e+00 3.8456444179546473e-01 3.0429503002434952e+00  3.4876593384085819e+00 -3.6389218065064330e+00 1.3844316631308484e+00 -3.6389218065064344e+00 -7.6484041021167226e-01 8.0073418161414989e-01 1.3844316631308484e+00 8.0073418161414978e-01 2.6990811266339207e+00  3.7388839084181096e+00 2.8042431585571954e+00 2.3607480327372624e-01 2.8042431585571954e+00 -1.6385688805090897e+00 1.7171046859727501e+00 2.3607480327372624e-01 1.7171046859727501e+00 2.7270728107238305e+00  1.9006511662083538e+00 3.9843838881393601e+00 -1.3065106125093878e-01 3.9843838881393627e+00 -4.2473433973264911e-02 -1.4523553078533680e+00 -1.3065106125093875e-01 -1.4523553078533680e+00 4.6680377087805471e+00  2.0483518243039835e+00 4.2375226358664033e+00 6.1019373279981837e-01 4.2375226358664033e+00 9.0033691298381091e-01 -2.1818848782339342e+00 6.1019373279981837e-01 -2.1818848782339342e+00 4.1833095973829275e+00  3.2305491623016849e+00 3.7687611167976098e+00 -2.4378506043764175e-01 3.7687611167976098e+00 -8.6713962607820538e-01 -1.7504914825116571e+00 -2.4378506043764173e-01 -1.7504914825116571e+00 4.6318239647559443e+00  -1.9184331667739598e+00 -6.5285983090857619e-02 2.5437298823776309e+00 -6.5285983090857619e-02 5.6926863873877478e+00 -1.3092433821115783e+00 2.5437298823776309e+00 -1.3092433821115783e+00 1.8916981822646135e+00  -1.6005036593670707e+00 -1.7784391127678292e-01 2.9561651329031231e+00 -1.7784391127678292e-01 5.3053608716510698e+00 -1.1608830623966888e+00 2.9561651329031227e+00 -1.1608830623966888e+00 1.8886186375047227e+00  -1.4896524848404655e+00 1.5472769323776054e+00 2.5482440689529340e+00 1.5472769323776054e+00 5.6196581153875114e+00 -1.7983079626425513e+00 2.5482440689529340e+00 -1.7983079626425518e+00 2.1887729997793297e+00  5.7263257961452050e+00 2.6268945478691597e-01 -8.5842343773649632e-01 2.6268945478691597e-01 -1.1384158299418010e+00 -2.7666974323170335e+00 -8.5842343773649621e-01 -2.7666974323170335e+00 6.0292363494071877e-01  3.3598337523139206e+00 -2.1981311843892377e+00 -7.9562080157790926e-01 -2.1981311843892377e+00 -2.4994502419884470e+00 7.8690980052906623e-01 -7.9562080157790904e-01 7.8690980052906612e-01 4.0859073036154792e+00  -6.5104637934035092e-01 1.0342222194198239e-01 -3.0336609250172382e+00 1.0342222194198235e-01 4.8061596889704488e+00 7.8416288346869989e-01 -3.0336609250172382e+00 7.8416288346869989e-01 4.9124445690019319e-01  -3.6682996478501434e-01 3.9095402112495501e+00 1.4229156895146675e+00 3.9095402112495501e+00 4.2440306302322837e+00 -1.9990242886237286e+00 1.4229156895146675e+00 -1.9990242886237286e+00 3.5957443326063636e+00  -1.0984735771635712e+00 3.0326071161949790e+00 2.0986925774829674e+00 3.0326071161949790e+00 5.4375589208463175e+00 -1.7467461264200281e+00 2.0986925774829674e+00 -1.7467461264200281e+00 3.0952377434323539e+00  5.2570270831726529e-01 -2.9163656267957552e+00 -2.6946590343428762e+00 -2.9163656267957561e+00 3.3276407546754263e+00 -7.7353976794847190e-01 -2.6946590343428771e+00 -7.7353976794847179e-01 7.3583667328297009e-01  4.5851518712369976e-01 -1.7563817130566384e+00 -3.1255654735272831e+00 -1.7563817130566379e+00 3.7684305887982688e+00 -3.8801267009666895e-01 -3.1255654735272826e+00 -3.8801267009666895e-01 -6.1901294045317690e-02  5.0040547773583866e+00 2.8634893729980193e-01 -1.1481091464819366e+00 2.8634893729980193e-01 -3.2992129554353231e+00 -5.8846190825434996e-01 -1.1481091464819366e+00 -5.8846190825435007e-01 4.3815312794366719e+00  5.3890149613092584e+00 7.9528099353952519e-01 -9.7618270231274984e-01 7.9528099353952519e-01 -2.8698117001343157e+00 -1.7455111546300970e+00 -9.7618270231274962e-01 -1.7455111546300970e+00 3.9409572475105739e+00  2.1746236477219556e+00 -3.9759304097007073e-03 1.8526815842827411e+00 -3.9759304097004185e-03 3.2970925603694510e+00 -1.7914883085513131e-01 1.8526815842827415e+00 -1.7914883085513134e-01 -2.7652051086737335e+00  2.3307048107863730e+00 -1.7046514813064086e+00 2.2825012968892127e+00 -1.7046514813064086e+00 2.3864644654628684e+00 1.4460325389581143e+00 2.2825012968892122e+00 1.4460325389581143e+00 -1.3629699799927848e+00  2.3377044055831102e+00 -1.8140755288653774e+00 -1.9331469224860758e+00 -1.8140755288653774e+00 1.2959208758026666e+00 -1.6190494016367478e+00 -1.9331469224860758e+00 -1.6190494016367478e+00 -9.2611630693810032e-01  2.2725669213261486e+00 -6.2016133910358273e-01 -9.6111417962535850e-01 -6.2016133910358273e-01 1.3513755748830676e+00 -1.8036635907423113e+00 -9.6111417962535839e-01 -1.8036635907423113e+00 -1.8561771399994542e+00  1.2007738724493240e+00 -1.2468494615569623e+00 -2.7159383638378674e+00 -1.2468494615569623e+00 2.8310604623736717e+00 -6.5582413799229455e-01 -2.7159383638378674e+00 -6.5582413799229455e-01 -1.0766603488396680e+00  1.9188361757287644e+00 -7.0212212707739297e-01 -2.2596848240387639e+00 -7.0212212707739308e-01 2.9969534435959480e+00 -4.3497894134468790e-01 -2.2596848240387639e+00 -4.3497894134468779e-01 -1.9980369761570287e+00  3.7932571713335062e+00 9.9512278106007115e-02 -7.8629865158896950e-01 9.9512278106007115e-02 -3.2223788693490785e+00 3.1986188518661701e-01 -7.8629865158896950e-01 3.1986188518661696e-01 4.1099416156901638e+00  3.8884475645168028e+00 1.2534849912805812e+00 -8.7948117325374220e-01 1.2534849912805812e+00 -2.9763587515905647e+00 -4.0185478046019346e-01 -8.7948117325374220e-01 -4.0185478046019346e-01 4.2331936842979800e+00  4.4174554406579603e+00 1.8335976988515283e+00 -6.4136917520387171e-01 1.8335976988515283e+00 -2.6808584467352130e+00 -1.3246363016691636e+00 -6.4136917520387171e-01 -1.3246363016691636e+00 4.2167626437941834e+00  9.5769090328237527e-01 -2.4472499841522790e+00 2.6038376379898840e+00 -2.4472499841522790e+00 1.7027894456548036e+00 9.1918639747452147e-01 2.6038376379898844e+00 9.1918639747452124e-01 8.3491819123593969e-01  8.2502895106414387e-01 -1.6825404556065500e+00 2.3146572305714574e+00 -1.6825404556065500e+00 2.0565298936771721e+00 1.7113302150557352e+00 2.3146572305714579e+00 1.7113302150557352e+00 3.2292900770702862e-02  3.3944224033112134e+00 -1.4713053486280860e+00 1.5540438906524652e+00 -1.4713053486280860e+00 5.6704397088074787e-01 2.7770910445925536e+00 1.5540438906524652e+00 2.7770910445925536e+00 -1.6420937319301596e-01  -1.2327115421453212e-01 -2.3474683288615505e+00 3.1886178958355815e+00 -2.3474683288615505e+00 3.3179297162598527e+00 3.7285721943332634e-01 3.1886178958355811e+00 3.7285721943332634e-01 1.4912768586302760e+00  3.7730733122071443e+00 2.7606690324664216e+00 -8.4604364774396312e-01 2.7606690324664216e+00 -2.2427399173302089e+00 -6.6322544683970930e-01 -8.4604364774396312e-01 -6.6322544683970930e-01 4.5510392779743594e+00  4.8045042388369179e+00 2.0262348679284585e+00 -4.3437287455907819e-01 2.0262348679284585e+00 -2.1411785575214406e+00 -2.2937240967404566e+00 -4.3437287455907792e-01 -2.2937240967404566e+00 3.7472891937243653e+00  3.0777733455882870e+00 4.2303844478651706e+00 1.3675355783564360e+00 4.2303844478651715e+00 2.6511275839724968e+00 -3.0928517375791671e+00 1.3675355783564360e+00 -3.0928517375791671e+00 1.9236714244626123e+00  5.8893302877986100e+00 3.6759907713713380e+00 1.9320391193358150e-01 3.6759907713713380e+00 6.5982812599742480e-01 -3.1449739964331207e+00 1.9320391193358150e-01 -3.1449739964331216e+00 1.2033946149087307e+00  9.9395727646958343e-01 -3.8747363297943997e+00 2.3319383031118060e-01 -3.8747363297943997e+00 7.0302245461320600e-01 1.9380258068864895e+00 2.3319383031118060e-01 1.9380258068864895e+00 4.0781864947627398e+00  -1.1006149621616668e+00 -2.1215239006595303e+00 -2.4044824744430002e+00 -2.1215239006595303e+00 3.4167931719840889e+00 1.2907626998380142e-01 -2.4044824744430002e+00 1.2907626998380153e-01 1.4283795568254261e+00  -6.4779989094790991e-01 3.9670941356107714e+00 1.4244498464122743e-01 3.9670941356107714e+00 2.7921188873800080e+00 -1.1925542804568376e+00 1.4244498464122743e-01 -1.1925542804568376e+00 4.4911079129053419e+00  -1.5993883213039024e+00 -1.4315659005728336e+00 2.7292151959258679e+00 -1.4315659005728336e+00 6.0063094543098750e+00 -6.7135245052799153e-01 2.7292151959258679e+00 -6.7135245052799175e-01 1.8871227128115715e+00  2.8352961764650906e+00 4.4838525714809743e+00 1.0293049686000237e+00 4.4838525714809743e+00 1.5700772134176486e+00 -2.5928309167247705e+00 1.0293049686000237e+00 -2.5928309167247705e+00 3.5260857096313512e+00  2.9678388731519103e+00 5.4014071183069690e-01 8.9859488771174090e-01 5.4014071183069690e-01 1.5853724574105015e+00 -2.5514678832085700e+00 8.9859488771174123e-01 -2.5514678832085700e+00 -1.4934004084476835e+00  1.9613923770635178e+00 -6.4739780528776020e-02 5.1705433475041152e-01 -6.4739780528776034e-02 1.7053526440337921e+00 -1.1918909500448787e+00 5.1705433475041140e-01 -1.1918909500448787e+00 -2.4058243977423368e+00  -1.5196977123206967e-01 -3.9417460641752684e+00 1.3604353545506365e+00 -3.9417460641752680e+00 2.2719376366598869e+00 4.2489743184528389e-02 1.3604353545506369e+00 4.2489743184528396e-02 3.2641961451202275e+00  9.7507688734051734e-01 2.5960067541408658e+00 -1.8916898489522447e+00 2.5960067541408667e+00 2.9292760286649866e+00 2.5288912878669070e+00 -1.8916898489522453e+00 2.5288912878669070e+00 6.7839072906756381e-01  -4.6356995911492782e-01 1.6709299046368036e+00 -2.2749874806963719e+00 1.6709299046368036e+00 3.7785416091212198e+00 1.9136928483461297e+00 -2.2749874806963728e+00 1.9136928483461293e+00 8.5250242737394266e-01  3.1122735746382717e+00 -5.8867677783618311e-01 -2.0846045877539937e-01 -5.8867677783618311e-01 1.3764079242378997e+00 -2.4160723961406703e+00 -2.0846045877539937e-01 -2.4160723961406703e+00 -1.7976560250788882e+00  2.7816392889115549e+00 4.4433450761849151e+00 1.5666850770623764e+00 4.4433450761849125e+00 3.2573669360543178e+00 -2.9560028010335895e+00 1.5666850770623764e+00 -2.9560028010335895e+00 2.0804634243431046e+00  -1.0986906937908998e+00 -1.3585103609236242e+00 2.9920541361316921e+00 -1.3585103609236242e+00 4.5272577366551783e+00 -3.3506341433148396e-01 2.9920541361316935e+00 -3.3506341433148396e-01 1.3000840905942195e+00  -9.7992361885216178e-02 3.3713736050222924e+00 2.2515256240203345e+00 3.3713736050222924e+00 5.6968307778233465e+00 -2.3291963276984231e+00 2.2515256240203345e+00 -2.3291963276984231e+00 2.1921242618841701e+00  4.3131653296528158e+00 6.3801272294175024e-02 6.7051667195621234e-01 6.3801272294175038e-02 -2.6404035183010111e-01 3.0545250004551798e+00 6.7051667195621234e-01 3.0545250004551798e+00 1.0168608260803422e-01  4.0026188814155814e+00 3.0014865770742560e-01 4.2863441855366374e-01 3.0014865770742566e-01 -1.1557411474106363e+00 2.9086343742225615e+00 4.2863441855366380e-01 2.9086343742225615e+00 1.1258874401504007e+00  6.2720897641053508e-01 1.0904048408743556e+00 -3.0064313004608678e+00 1.0904048408743556e+00 4.1990047711859217e+00 1.6010261566431272e+00 -3.0064313004608678e+00 1.6010261566431274e+00 -1.1480911815931208e-01  2.2803701565960632e+00 1.8825971032590205e+00 -2.4391952710775642e+00 1.8825971032590207e+00 2.8539202318156502e+00 2.6578467019785585e+00 -2.4391952710775642e+00 2.6578467019785585e+00 -1.8255409796937205e-01  2.3446279390343698e+00 2.4589187961778900e+00 -1.0013769546207609e+00 2.4589187961778900e+00 1.1351901021570672e+00 2.9255889754939330e+00 -1.0013769546207609e+00 2.9255889754939330e+00 6.7725358113313572e-01  3.8858245034556242e+00 -1.0337166897987902e+00 -6.0269116150167601e-01 -1.0337166897987902e+00 -2.0483775746794430e+00 3.0212449206597998e+00 -6.0269116150167612e-01 3.0212449206598002e+00 4.5945130968527277e+00  4.1335210082636999e+00 -1.1755032791287989e+00 -1.0243411121303336e+00 -1.1755032791287989e+00 -2.9611524014970532e+00 1.4618474399409191e+00 -1.0243411121303336e+00 1.4618474399409196e+00 4.6712242007400979e+00  3.9370904259653270e+00 1.5156512165663530e-01 -1.1296002945008574e+00 1.5156512165663530e-01 -2.5212652354627547e+00 2.4366577974259260e+00 -1.1296002945008574e+00 2.4366577974259260e+00 4.6375870549389946e+00  3.8238463833266541e+00 2.2247539922472545e-01 -1.1780726249736344e+00 2.2247539922472545e-01 -3.1146730612321720e+00 1.1545845719097667e+00 -1.1780726249736344e+00 1.1545845719097667e+00 4.5769586738762165e+00  3.1748556802879468e+00 -4.6280763063286640e-01 -1.1603016234596131e+00 -4.6280763063286640e-01 -3.5172405898711456e-01 4.4912811297115338e+00 -1.1603016234596133e+00 4.4912811297115329e+00 3.8606744398892405e+00  -1.9384348911930700e+00 -4.0661561172079114e-01 2.6409794504908537e+00 -4.0661561172079108e-01 5.6791004691979214e+00 -8.6010397124910265e-01 2.6409794504908537e+00 -8.6010397124910265e-01 2.0118506903579796e+00  6.4482778036924202e+00 -1.0784808766562877e+00 -1.6815577468057297e+00 -1.0784808766562874e+00 -1.2018362241239262e+00 -2.7928780411854635e+00 -1.6815577468057303e+00 -2.7928780411854635e+00 1.5269758879702116e+00  -1.6138767334375177e+00 -3.1070649049435279e+00 1.0863111636636789e+00 -3.1070649049435271e+00 3.2108584115251508e+00 -5.3699535196231118e-01 1.0863111636636786e+00 -5.3699535196231118e-01 3.4640404974058798e+00  -1.1725513066337538e+00 -3.7025310142301904e+00 1.8835140978337221e+00 -3.7025310142301904e+00 5.1067559597712746e+00 -1.5468173324622220e-02 1.8835140978337221e+00 -1.5468173324622228e-02 3.2473034555308882e+00  6.8621618096401138e-01 -4.1483092428155608e+00 1.7808946238794583e+00 -4.1483092428155608e+00 2.2695520242368854e+00 5.1575027818915709e-01 1.7808946238794576e+00 5.1575027818915697e-01 2.7985260729623089e+00  -2.5280375814561666e+00 -2.2082017742111137e+00 1.2911261049617329e+00 -2.2082017742111137e+00 5.0678731436504068e+00 -5.9129363445632144e-01 1.2911261049617329e+00 -5.9129363445632144e-01 3.5252631309818914e+00  3.6377979364323547e+00 1.5137867728530208e+00 -3.6539856970280704e-01 1.5137867728530205e+00 -4.3129515466026119e-01 3.2902446561198460e+00 -3.6539856970280704e-01 3.2902446561198460e+00 1.2617373869463351e+00  3.1135633235019213e+00 -9.1671620675940790e-01 -8.8076809907979159e-01 -9.1671620675940790e-01 8.1531673195082865e-01 -2.5190582971850737e+00 -8.8076809907979159e-01 -2.5190582971850737e+00 -1.0069329254334984e+00  1.9388891699381443e+00 -2.3207749455483730e+00 -2.4726315070758806e+00 -2.3207749455483726e+00 1.7440119790397801e+00 -1.5283114060849505e+00 -2.4726315070758802e+00 -1.5283114060849505e+00 -4.3186440391556245e-02  3.0458645476028754e+00 2.4737229297119104e-01 -2.4839867965664544e+00 2.4737229297119104e-01 -1.5340588386427648e-01 4.2543275739224971e+00 -2.4839867965664548e+00 4.2543275739224971e+00 4.2979329937973478e+00  2.6882090390622349e+00 5.9061616076278334e-01 -1.5487577341458851e+00 5.9061616076278334e-01 -1.2137216280171075e+00 3.4078291971151415e+00 -1.5487577341458849e+00 3.4078291971151415e+00 4.0275571962069749e+00  7.6896541314559697e-01 3.1211888147469674e-01 3.4492704551732047e+00 3.1211888147469674e-01 4.1882414153568304e+00 -1.0014193602661372e+00 3.4492704551732047e+00 -1.0014193602661372e+00 -4.4143339170030549e-01  7.9659042848314510e-01 4.2878274988712421e+00 9.7662994190020880e-01 4.2878274988712421e+00 2.4405063708968391e+00 -2.0606282141259076e+00 9.7662994190020880e-01 -2.0606282141259076e+00 4.0409623425516532e+00  -9.0902505925395305e-01 1.8373112953493553e+00 2.5230865689782167e+00 1.8373112953493558e+00 4.8849385092948463e+00 -2.1110108778964527e+00 2.5230865689782167e+00 -2.1110108778964527e+00 1.8660551400824101e+00  7.0706768915786145e-01 3.1882115865048863e+00 2.0183275569749446e+00 3.1882115865048863e+00 4.0543453155206217e+00 -2.6780795063146012e+00 2.0183275569749446e+00 -2.6780795063146008e+00 1.5363161474215081e+00  6.0715618262397764e-01 2.7864381793625039e+00 2.6929693667603254e+00 2.7864381793625039e+00 4.2132473434979074e+00 -2.2161993322573021e+00 2.6929693667603254e+00 -2.2161993322573026e+00 1.2497499785758379e+00  -9.1754330990294031e-01 1.1299515351087459e+00 2.8845960459497113e+00 1.1299515351087459e+00 4.8474417170494215e+00 -1.4792209732526351e+00 2.8845960459497113e+00 -1.4792209732526351e+00 1.3087057433156952e+00  2.6875041124019833e-01 3.4373423822776576e+00 2.1024025974959697e+00 3.4373423822776568e+00 5.0593561526407944e+00 -2.4437048968707420e+00 2.1024025974959697e+00 -2.4437048968707420e+00 1.7555397958763035e+00  1.9682323344614033e-01 -1.4180655066197827e+00 3.3118594095784220e+00 -1.4180655066197827e+00 3.8019450166130451e+00 5.3417721165492793e-01 3.3118594095784220e+00 5.3417721165492804e-01 8.2231082642357733e-02  2.3069770921722408e+00 -4.0939447418228969e+00 -2.4692944580052609e+00 -4.0939447418228969e+00 1.5540907341245158e+00 -8.7804009689838913e-01 -2.4692944580052609e+00 -8.7804009689838913e-01 2.0594557884099887e+00  4.4107075048342779e+00 -3.6710079044665020e+00 -2.3460755001499960e+00 -3.6710079044665020e+00 -5.1142161511871578e-02 -1.4845043068525654e+00 -2.3460755001499956e+00 -1.4845043068525654e+00 2.2963138002754211e+00  3.5907858715993317e+00 1.4495816917471684e+00 -9.6331142499060196e-01 1.4495816917471684e+00 -2.9464236393896215e+00 3.8622521117892417e-01 -9.6331142499060196e-01 3.8622521117892411e-01 4.3845869918167919e+00  -3.1195072396603121e+00 6.1214301384523351e-01 1.0372134042507546e+00 6.1214301384523362e-01 5.6537598131860323e+00 -1.1233706148498801e+00 1.0372134042507546e+00 -1.1233706148498801e+00 3.9683692578339271e+00  -2.8765915120085674e+00 -7.5017174592237068e-01 1.5913400224381480e+00 -7.5017174592237057e-01 6.3704627266899321e+00 -7.9414721335997096e-01 1.5913400224381480e+00 -7.9414721335997096e-01 3.6536515019608760e+00  -3.0767253419985376e+00 -8.6609976254681897e-01 7.9198109864461397e-01 -8.6609976254681897e-01 4.8871280637966770e+00 -8.3821901960105416e-01 7.9198109864461397e-01 -8.3821901960105416e-01 3.4298777555968911e+00  1.6370766126209939e+00 7.4864283269895848e-01 -2.5305676165207278e+00 7.4864283269895826e-01 4.4032215114456790e+00 1.2626777595842864e+00 -2.5305676165207278e+00 1.2626777595842864e+00 -1.6966679638778861e+00  3.4360108474909117e+00 7.9905641703506713e-01 -1.1609017906270178e+00 7.9905641703506713e-01 2.1854887582372902e+00 2.5444556230637683e+00 -1.1609017906270178e+00 2.5444556230637683e+00 -1.7117118195716887e+00  3.7703028135130006e+00 1.1641147912019396e+00 -1.0474774598809999e+00 1.1641147912019396e+00 1.2671795464343636e+00 3.2954702148431623e+00 -1.0474774598809999e+00 3.2954702148431623e+00 -3.3767101654429815e-01  4.9771837318414693e+00 -1.7818584323411817e+00 -1.6619595124874691e+00 -1.7818584323411817e+00 -1.9886823930145030e+00 -1.9877851391043617e+00 -1.6619595124874689e+00 -1.9877851391043617e+00 2.8205011817541101e+00  -2.3299680816754131e+00 2.4179118794388699e+00 1.0895444776749610e+00 2.4179118794388708e+00 5.1243883881739203e+00 -1.4211018303497558e+00 1.0895444776749610e+00 -1.4211018303497558e+00 4.0400119710268205e+00  -2.7243915955560207e+00 5.3635753030014410e-01 1.8924589926306152e+00 5.3635753030014410e-01 6.4785830108221738e+00 -1.1167231333824863e+00 1.8924589926306152e+00 -1.1167231333824861e+00 3.4799815084268726e+00  -1.9198643966185682e+00 2.5031124608195512e+00 1.6492991269690458e+00 2.5031124608195512e+00 5.5723234948302327e+00 -1.7614194500857288e+00 1.6492991269690458e+00 -1.7614194500857288e+00 3.6052988057809494e+00  2.5620617563681165e+00 -2.7538823711477578e-01 1.9843715466751230e-01 -2.7538823711477584e-01 2.1871063621511939e+00 5.2734340064471363e-01 1.9843715466751244e-01 5.2734340064471363e-01 -2.8409221821162598e+00  3.9097855246830910e+00 2.9672777024564994e+00 -2.4864720565899140e-01 2.9672777024564994e+00 -1.6543550864345211e+00 -1.9500797354030954e+00 -2.4864720565899154e-01 -1.9500797354030954e+00 4.2337572959516692e+00  4.3584903693481500e+00 3.1972115070942504e+00 -4.4091954546880113e-02 3.1972115070942504e+00 -1.1384546935589133e+00 -2.5348544839365457e+00 -4.4091954546880134e-02 -2.5348544839365457e+00 3.8129725233768199e+00  3.7526339916820772e-01 -4.9100828284581238e-01 -3.0273309073060344e+00 -4.9100828284581233e-01 4.5788508867137336e+00 5.0715372006166559e-01 -3.0273309073060348e+00 5.0715372006166559e-01 -6.9043377474059320e-01  3.1115962356048907e+00 -2.4726180180036414e+00 -5.2450026010670914e-01 -2.4726180180036414e+00 -2.0610831239131291e+00 1.8130754222624563e+00 -5.2450026010670914e-01 1.8130754222624563e+00 4.5392033306830246e+00  6.7484168249136163e+00 1.2072087132562699e+00 -6.6866778560513151e-01 1.2072087132562699e+00 -9.2504708670167513e-01 -3.4305358204652503e+00 -6.6866778560513140e-01 -3.4305358204652503e+00 1.4753753236998239e+00  3.4981998164705042e+00 -2.2500903198334252e+00 5.2526617192203799e-03 -2.2500903198334248e+00 -1.3567226712699370e+00 3.0567687028450874e+00 5.2526617192203712e-03 3.0567687028450865e+00 4.2903679192789426e+00  2.6632836179696411e+00 1.0201933435319092e-01 -6.5972674831928269e-01 1.0201933435319097e-01 3.0316831718123178e+00 6.6905162112618410e-01 -6.5972674831928302e-01 6.6905162112618410e-01 -2.9611240987218896e+00  3.7536325918858875e+00 2.5039724283025611e-01 -8.8842584719969378e-02 2.5039724283025611e-01 3.2576920155035610e-01 -2.6972944264842220e+00 -8.8842584719969378e-02 -2.6972944264842220e+00 -9.8480755857240831e-01  3.2861096195719619e+00 1.2534161046483550e+00 -1.1597701824849180e+00 1.2534161046483550e+00 -2.5758662329407400e+00 1.5967492373229633e+00 -1.1597701824849180e+00 1.5967492373229633e+00 4.6201591946816283e+00  3.4461003973981268e+00 3.9301195305742569e+00 2.4761148308327607e-01 3.9301195305742569e+00 -2.0538104799888987e-01 -2.4599650834300943e+00 2.4761148308327605e-01 -2.4599650834300943e+00 4.1831039282274718e+00  -1.8153201486367598e+00 -2.5678141098408500e+00 2.2106893430309578e+00 -2.5678141098408500e+00 5.7572544538944159e+00 -2.9727332082676461e-01 2.2106893430309578e+00 -2.9727332082676472e-01 2.9960805716310772e+00  5.8245380423524802e+00 1.0464142737079956e+00 -8.4297564327055596e-01 1.0464142737079956e+00 -2.3631234995911505e+00 -2.5177582288091491e+00 -8.4297564327055596e-01 -2.5177582288091491e+00 3.4083107383331201e+00  6.3761357815231348e+00 -4.2896185925481967e-01 -1.2574331554509772e+00 -4.2896185925481956e-01 -2.2850669038345943e+00 -2.5281018391259620e+00 -1.2574331554509774e+00 -2.5281018391259620e+00 2.9918636859617722e+00  5.8188427768695004e+00 -2.1117710358623496e+00 -1.8032737974407207e+00 -2.1117710358623496e+00 -1.5999875968060764e+00 -2.1864017364950539e+00 -1.8032737974407209e+00 -2.1864017364950539e+00 2.5426935303451668e+00  2.9268754927599887e+00 -1.3078752741032629e+00 -2.9925504846757503e-02 -1.3078752741032629e+00 6.4339766598920586e-02 4.6094574864769404e+00 -2.9925504846757552e-02 4.6094574864769413e+00 3.7140793597510120e+00  -2.6027067214969906e+00 -1.3022237552448777e+00 1.7763261843225435e+00 -1.3022237552448772e+00 5.1193921177754023e+00 -4.2720600501103090e-01 1.7763261843225431e+00 -4.2720600501103062e-01 3.2418688659231067e+00  -1.7692114834409882e+00 1.3106167415913956e+00 2.4281694939959384e+00 1.3106167415913956e+00 6.6036013660666439e+00 -1.3520840361373727e+00 2.4281694939959384e+00 -1.3520840361373723e+00 2.0035608666990039e+00  1.6660456650016349e+00 1.9500460478799633e+00 2.5795242078830434e+00 1.9500460478799633e+00 2.7641088149445028e+00 -2.3960262927250859e+00 2.5795242078830434e+00 -2.3960262927250859e+00 1.1269785521812267e-01  -5.0125647551386199e-01 -2.8958283086271912e+00 7.9367670631373455e-01 -2.8958283086271912e+00 9.0993858642497993e-01 1.5754803870909775e+00 7.9367670631373455e-01 1.5754803870909775e+00 4.1945679072710869e+00  1.8011172267345053e+00 -3.5953509471284173e+00 -2.6232343825593705e+00 -3.5953509471284173e+00 1.9754607238585047e+00 -9.4208240512154950e-01 -2.6232343825593705e+00 -9.4208240512154950e-01 1.2712638456977670e+00  1.7568264523845583e+00 -2.4254571085957541e-01 -5.4810811672001580e-01 -2.4254571085957535e-01 1.3695490088139493e+00 -5.8462718685032844e-01 -5.4810811672001580e-01 -5.8462718685032844e-01 -2.2269479291379279e+00  6.6354640686735360e+00 2.4393837633188964e+00 -1.8171727603972481e-03 2.4393837633188964e+00 -4.9267862521888195e-01 -3.3802494190742727e+00 -1.8171727603972455e-03 -3.3802494190742727e+00 1.7845001862971732e+00  7.1387759449430890e+00 2.9685649811554637e-01 -6.6043473893275395e-01 2.9685649811554643e-01 -1.3046529885121074e+00 -3.2167926411100383e+00 -6.6043473893275395e-01 -3.2167926411100383e+00 1.9617884177201224e+00  6.9648639327077455e-01 4.3163559540652461e+00 3.2421267547529320e-01 4.3163559540652461e+00 1.7526295354522745e+00 -1.6196317501447424e+00 3.2421267547529320e-01 -1.6196317501447424e+00 4.5426968972383568e+00  -2.4378673237607336e+00 -2.3729054497812969e+00 7.8844159650849543e-01 -2.3729054497812965e+00 4.0246991087015349e+00 -8.4132659900484030e-01 7.8844159650849543e-01 -8.4132659900484030e-01 3.3312117421415013e+00  7.0559434060100594e+00 1.8960788804045412e+00 -2.8910945820024153e-01 1.8960788804045414e+00 -1.4034259706934660e+00 -2.9974248111077797e+00 -2.8910945820024159e-01 -2.9974248111077797e+00 2.4000912402863968e+00  5.8737505051301140e+00 3.5536252870239893e+00 5.2729813510095780e-01 3.5536252870239893e+00 2.1504453684602579e-01 -3.2788471157823174e+00 5.2729813510095780e-01 -3.2788471157823174e+00 2.5236335139746151e+00  -8.9443310792989239e-01 3.7466807330205190e+00 8.0523153758486543e-01 3.7466807330205172e+00 3.6926480331040885e+00 -1.7159955310724466e+00 8.0523153758486543e-01 -1.7159955310724466e+00 4.0365786952003599e+00  7.5508061357760212e+00 -1.8109280055215040e+00 -1.6712255573897050e+00 -1.8109280055215040e+00 -1.2568488687413233e+00 -2.5161242747789787e+00 -1.6712255573897050e+00 -2.5161242747789787e+00 1.7601028531835730e+00  5.0483067389977965e+00 -3.5436391666433327e+00 -2.2662716609983971e+00 -3.5436391666433331e+00 8.7832156194491168e-02 -1.7430856797039516e+00 -2.2662716609983971e+00 -1.7430856797039511e+00 1.5680900824742352e+00  7.3405498378654714e+00 -3.3824714612241258e-01 -1.1532259877417870e+00 -3.3824714612241263e-01 -1.9285017954361781e+00 -2.8156458798147708e+00 -1.1532259877417870e+00 -2.8156458798147708e+00 2.6141007796531608e+00  -1.9572195655431748e+00 2.9632753886727916e+00 3.4683728727757124e-01 2.9632753886727921e+00 3.7698440616021807e+00 -1.0948219569417770e+00 3.4683728727757124e-01 -1.0948219569417768e+00 4.2086707639625054e+00  6.8124497745113048e+00 1.3898467901897087e+00 -6.5026713799843638e-01 1.3898467901897085e+00 -1.9619246471495912e+00 -2.8697123333309866e+00 -6.5026713799843661e-01 -2.8697123333309866e+00 3.1415717224843056e+00  -2.2455553749263535e+00 -7.6475642119244758e-01 2.4065446992911470e+00 -7.6475642119244747e-01 5.7397549725051418e+00 -7.9308664467158885e-01 2.4065446992911474e+00 -7.9308664467158885e-01 2.5234644288062977e+00  -1.6891022945898642e+00 -2.0337536220756975e+00 2.6635077364219000e+00 -2.0337536220756975e+00 5.7396298475250740e+00 -3.3442749945308886e-01 2.6635077364219000e+00 -3.3442749945308869e-01 2.4480256706465635e+00  4.4193109154997003e+00 3.8540476131735604e+00 6.0514618012190768e-01 3.8540476131735604e+00 4.3949934869435235e-02 -2.9212067926598539e+00 6.0514618012190768e-01 -2.9212067926598539e+00 3.6554545091340662e+00  -2.0547486020618653e+00 1.2191584132060926e+00 2.3506858723347706e+00 1.2191584132060926e+00 6.5080656300373718e+00 -1.3230345599229627e+00 2.3506858723347706e+00 -1.3230345599229627e+00 2.6183423590059069e+00  5.5934232439901388e+00 2.5898039923854257e+00 -1.9734693682108412e-01 2.5898039923854257e+00 -1.5573279922165946e+00 -2.7913310876463444e+00 -1.9734693682108401e-01 -2.7913310876463444e+00 3.5712440651842252e+00  5.7425281078865140e+00 3.1256603234822058e+00 3.3708082595522820e-01 3.1256603234822058e+00 -6.9020331392227763e-01 -3.1473544417420327e+00 3.3708082595522815e-01 -3.1473544417420327e+00 3.2979837226260322e+00  2.4154852371438111e+00 -3.9790541704041074e+00 -2.5681975641326833e+00 -3.9790541704041074e+00 1.7508720340020452e+00 -9.3544370936658883e-01 -2.5681975641326833e+00 -9.3544370936658883e-01 1.6410804733444782e+00  6.0615516687410720e-01 1.4647690942893392e+00 4.1627908157895286e+00 1.4647690942893392e+00 1.5187151732837274e+00 -1.5398563100874969e+00 4.1627908157895277e+00 -1.5398563100874969e+00 4.0627742950197492e+00  -1.0747683716219192e+00 -2.9428014370060518e-01 2.9486637722484343e+00 -2.9428014370060518e-01 1.5712431376655820e+00 3.6529683497418336e-01 2.9486637722484339e+00 3.6529683497418347e-01 2.4133993531271742e+00  2.2559529883716074e+00 8.4585088463085800e-01 2.6693621235417342e+00 8.4585088463085800e-01 -6.5246919223355004e-01 -3.2877731452918577e+00 2.6693621235417342e+00 -3.2877731452918577e+00 4.4928476440397427e+00  2.4657438796266056e+00 6.0809353218130979e-01 2.3265015774762108e+00 6.0809353218130968e-01 -8.3485727521163466e-01 -3.8124107807581953e+00 2.3265015774762112e+00 -3.8124107807581953e+00 5.7852247365794502e+00  2.8187874448946698e-01 -1.0368529154923860e+00 -1.1109369718703299e+00 -1.0368529154923860e+00 1.4182526820566493e-01 -2.7936310333888685e+00 -1.1109369718703299e+00 -2.7936310333888685e+00 2.1429781257370037e+00  2.2884111282732302e+00 -8.7098135379189501e-01 3.3380723478835111e-01 -8.7098135379189501e-01 -4.9561348971111913e-01 -4.4735240692576683e+00 3.3380723478835111e-01 -4.4735240692576683e+00 4.9615975819634226e+00  -9.7534907681956640e-01 -3.2277810458448719e-01 -2.6188630912541644e+00 -3.2277810458448719e-01 1.2165297452241055e+00 -1.3713907058330355e+00 -2.6188630912541644e+00 -1.3713907058330355e+00 2.6051403615077118e+00  -2.8013584711621270e-01 8.3264786532418755e-01 3.5180076692434850e+00 8.3264786532418755e-01 1.1223850745789998e+00 -6.0593111857923410e-01 3.5180076692434858e+00 -6.0593111857923421e-01 2.9122583755744742e+00  2.2669993078505435e-01 9.6896133378047933e-01 -4.6133926167687012e+00 9.6896133378047933e-01 2.1880311627700815e+00 6.4431018320638939e-02 -4.6133926167687012e+00 6.4431018320638939e-02 3.9230576383327329e+00  -3.2492714878510498e-01 6.2683484635057163e-01 4.4539522395054538e+00 6.2683484635057163e-01 2.7934534710109169e+00 7.1395502494131657e-01 4.4539522395054565e+00 7.1395502494131657e-01 3.9232067571839342e+00  1.2801269555380965e+00 1.6242788737517280e+00 -4.4800834879841744e+00 1.6242788737517280e+00 1.1267977728482974e+00 1.7588851931848306e+00 -4.4800834879841727e+00 1.7588851931848311e+00 4.9561425490944560e+00  3.3596300733749729e-01 1.1230802767824157e+00 1.5358369278528914e+00 1.1230802767824157e+00 4.4710068371783346e-01 -1.8275323850318745e+00 1.5358369278528912e+00 -1.8275323850318743e+00 8.7407050041094381e-01  -2.8856811219561918e-01 -1.0116665044560751e+00 -3.8217880191746447e+00 -1.0116665044560751e+00 2.4041309228873340e+00 -2.7192052499098178e+00 -3.8217880191746447e+00 -2.7192052499098178e+00 5.2767999223138373e+00  2.4065507892284672e+00 7.6759868084588745e-01 -3.5997746392279386e+00 7.6759868084588778e-01 5.1689746147061455e-01 3.4874377788842468e+00 -3.5997746392279386e+00 3.4874377788842468e+00 4.1367803547074358e+00  3.5570780208454930e-02 -1.3218217764875779e+00 -1.3061561316601782e+00 -1.3218217764875779e+00 -1.3513997849603856e-02 -1.6231633360294517e+00 -1.3061561316601782e+00 -1.6231633360294517e+00 1.6628499400987642e+00  3.0334762391516370e+00 -3.2113811146793431e-02 1.3002481654387164e+00 -3.2113811146793465e-02 -1.4110913268232301e+00 -3.9543616179694796e+00 1.3002481654387164e+00 -3.9543616179694796e+00 6.0605846025168519e+00  1.3539305816377354e+00 -1.8219669209956832e+00 -1.8391981241957571e+00 -1.8219669209956832e+00 6.6056852289691026e-01 -4.1038010557041433e+00 -1.8391981241957571e+00 -4.1038010557041433e+00 5.2578634049424382e+00  1.4982835543361863e+00 -1.9786125624568034e+00 2.4799069838651704e+00 -1.9786125624568034e+00 2.1324451278817063e+00 3.9498679765778824e+00 2.4799069838651704e+00 3.9498679765778824e+00 3.3539874378636498e+00  2.8656878708100870e+00 9.6928560264947194e-01 -3.1234565322474861e+00 9.6928560264947206e-01 4.6638923386988530e-02 3.8475949387311119e+00 -3.1234565322474861e+00 3.8475949387311119e+00 5.0068306640809466e+00  1.1665953270142864e+00 1.1366472803767558e+00 -4.6409150230486329e+00 1.1366472803767558e+00 1.3342027627074651e+00 1.2058817646109647e+00 -4.6409150230486320e+00 1.2058817646109647e+00 3.8325704750493439e+00  -3.4881294471914362e-02 1.0320569421684291e+00 1.3350232649046982e+00 1.0320569421684291e+00 3.8929093238522655e-01 -2.0153598905419439e+00 1.3350232649046982e+00 -2.0153598905419439e+00 1.4082460633175120e+00  1.8925765858466559e-01 -1.6461267437874270e+00 -3.2277349238389483e+00 -1.6461267437874270e+00 1.8475742536474062e+00 -3.3570798675044973e+00 -3.2277349238389501e+00 -3.3570798675044973e+00 5.8186914313690510e+00  9.1451905191511296e-01 -3.0867083527909089e-01 -1.3492818917983931e-01 -3.0867083527909089e-01 -6.2599950048714570e-01 -1.7940067159527813e+00 -1.3492818917983931e-01 -1.7940067159527813e+00 6.3829155182955566e-01  -9.0782626592479043e-01 6.2468367159779425e-01 4.4093481229225553e+00 6.2468367159779425e-01 2.5024959153160689e+00 6.4077611755831287e-01 4.4093481229225553e+00 6.4077611755831310e-01 6.0113504473789394e+00  1.6105950536557232e+00 4.9027657486680593e-01 1.1099704164917785e+00 4.9027657486680593e-01 -1.1456826124421027e+00 -2.6076298819078310e+00 1.1099704164917785e+00 -2.6076298819078310e+00 2.3643152663823472e+00  </DataArray> 
</PointData> 
</Piece>
</UnstructuredGrid>
</VTKFile>